     Program PWSCF v.6.1 starts on 12Jan2023 at  6:52:25

     Current dimensions of program PWSCF are:
     Max number of different atomic species (ntypx) = 10
     Max number of k-points (npk) =  40000
     Max angular momentum in pseudopotentials (lmaxx) =  3
               file O.pbe-rrkjus.UPF: wavefunction(s)  2S renormalized

     gamma-point specific algorithms are used

     Subspace diagonalization in iterative solution of the eigenvalue problem:
     a serial algorithm will be used

     Title:
     zno_al4_crystal_opted(SCF)

     bravais-lattice index     =            0
     lattice parameter (alat)  =      29.7710  a.u.
     unit-cell volume          =   14659.4174 (a.u.)^3
     number of atoms/cell      =          200
     number of atomic types    =            3
     number of electrons       =      1760.00
     number of Kohn-Sham states=         1320
     kinetic-energy cutoff     =      25.0000  Ry
     charge density cutoff     =     225.0000  Ry
     convergence threshold     =      1.0E-06
     mixing beta               =       0.7000
     number of iterations used =            8  plain     mixing
     Exchange-correlation      =  SLA  PW   PBE  PBE ( 1  4  3  4 0 0)

     celldm(1)=  29.770991  celldm(2)=   0.000000  celldm(3)=   0.000000
     celldm(4)=   0.000000  celldm(5)=   0.000000  celldm(6)=   0.000000

     crystal axes: (cart. coord. in units of alat)
               a(1) = (   1.000000   0.000049  -0.000042 )
               a(2) = (  -0.499958   0.866050   0.000042 )
               a(3) = (  -0.000027   0.000016   0.641478 )

     reciprocal axes: (cart. coord. in units 2 pi/alat)
               b(1) = (  0.999972  0.577269  0.000028 )
               b(2) = ( -0.000056  1.154635 -0.000028 )
               b(3) = (  0.000066 -0.000038  1.558900 )

     PseudoPot. # 1 for Zn read from file:
     C:\Users\Dimas\.burai\.pseudopot/Zn.pbe-van.UPF
     MD5 check sum: 8a117cd81793830d6ad9bd6443d05479
     Pseudo is Ultrasoft, Zval = 12.0
     Generated by new atomic code, or converted to UPF format
     Using radial grid of  869 points,  6 beta functions with:
                l(1) =   0
                l(2) =   0
                l(3) =   1
                l(4) =   1
                l(5) =   2
                l(6) =   2
     Q(r) pseudized with  8 coefficients,  rinner =    0.800   0.800   0.800
                                                       0.800   0.800

     PseudoPot. # 2 for O  read from file:
     C:\Users\Dimas\.burai\.pseudopot/O.pbe-rrkjus.UPF
     MD5 check sum: 390ba29e75625707450f3bd3f0eb6be9
     Pseudo is Ultrasoft, Zval =  6.0
     Generated by new atomic code, or converted to UPF format
     Using radial grid of 1269 points,  4 beta functions with:
                l(1) =   0
                l(2) =   0
                l(3) =   1
                l(4) =   1
     Q(r) pseudized with 0 coefficients

     PseudoPot. # 3 for Al read from file:
     C:\Users\Dimas\.burai\.pseudopot/Al.pbe-rrkj.UPF
     MD5 check sum: b5320f8fdc07ab0d74f109f4aa58256b
     Pseudo is Norm-conserving, Zval =  3.0
     Generated by new atomic code, or converted to UPF format
     Using radial grid of  879 points,  4 beta functions with:
                l(1) =   0
                l(2) =   0
                l(3) =   1
                l(4) =   1

     atomic species   valence    mass     pseudopotential
        Zn            12.00    65.39000     Zn( 1.00)
        O              6.00    15.99940     O ( 1.00)
        Al             3.00    26.98154     Al( 1.00)

     Simplified LDA+U calculation (l_max = 2) with parameters (eV):
     atomic species    L          U    alpha       J0     beta
        Zn             2    10.5000   0.0000   0.0000   0.0000
        O              1     7.0000   0.0000   0.0000   0.0000

      2 Sym. Ops. (no inversion) found

   Cartesian axes

     site n.     atom                  positions (alat units)
         1           Zn  tau(   1) = (   0.1001796   0.0580176   0.1604180  )
         2           Zn  tau(   2) = (  -0.0000864   0.1149679   0.6413627  )
         3           O   tau(   3) = (   0.1005714   0.0582215   0.2831840  )
         4           O   tau(   4) = (   0.0001405   0.1160985   0.1222082  )
         5           Zn  tau(   5) = (   0.1000876   0.0571498   0.4802942  )
         6           Zn  tau(   6) = (  -0.0005748   0.1154468   0.3197244  )
         7           O   tau(   7) = (   0.1006415   0.0584086   0.6021602  )
         8           O   tau(   8) = (   0.0011186   0.1157417   0.4421786  )
         9           Zn  tau(   9) = (  -0.0003280   0.2309296   0.1607651  )
        10           Zn  tau(  10) = (  -0.0990949   0.2880376   0.6405711  )
        11           O   tau(  11) = (   0.0000089   0.2320827   0.2833214  )
        12           O   tau(  12) = (  -0.1000450   0.2900567   0.1218516  )
        13           Zn  tau(  13) = (   0.0000265   0.2305044   0.4804700  )
        14           Zn  tau(  14) = (  -0.1009949   0.2891703   0.3205648  )
        15           O   tau(  15) = (   0.0013784   0.2308122   0.6024329  )
        16           O   tau(  16) = (  -0.0988105   0.2893960   0.4430691  )
        17           Zn  tau(  17) = (  -0.0997835   0.4045518   0.1603764  )
        18           Zn  tau(  18) = (  -0.1999689   0.4618477   0.6402332  )
        19           O   tau(  19) = (  -0.0997416   0.4050883   0.2821219  )
        20           O   tau(  20) = (  -0.1997546   0.4608919   0.1214154  )
        21           Zn  tau(  21) = (  -0.1001440   0.4049060   0.4815330  )
        22           Zn  tau(  22) = (  -0.2007065   0.4614640   0.3211121  )
        23           O   tau(  23) = (  -0.0988702   0.4043340   0.6041367  )
        24           O   tau(  24) = (  -0.2003636   0.4620594   0.4434008  )
        25           Zn  tau(  25) = (  -0.1998136   0.5766038   0.1596869  )
        26           Zn  tau(  26) = (  -0.3009724   0.6354266   0.6409813  )
        27           O   tau(  27) = (  -0.1987057   0.5767367   0.2816575  )
        28           O   tau(  28) = (  -0.2988027   0.6345098   0.1220223  )
        29           Zn  tau(  29) = (  -0.2003285   0.5779549   0.4811187  )
        30           Zn  tau(  30) = (  -0.2990295   0.6349278   0.3198220  )
        31           O   tau(  31) = (  -0.1999607   0.5778696   0.6038989  )
        32           O   tau(  32) = (  -0.3011141   0.6349714   0.4424464  )
        33           Zn  tau(  33) = (  -0.3000791   0.7506504   0.1597742  )
        34           Zn  tau(  34) = (  -0.4006505   0.8087154   0.6413264  )
        35           O   tau(  35) = (  -0.2993987   0.7502576   0.2820450  )
        36           O   tau(  36) = (  -0.4003092   0.8085183   0.1222181  )
        37           Zn  tau(  37) = (  -0.2996321   0.7503924   0.4812079  )
        38           Zn  tau(  38) = (  -0.3994775   0.8080381   0.3195270  )
        39           O   tau(  39) = (  -0.3004997   0.7508933   0.6032953  )
        40           O   tau(  40) = (  -0.3996342   0.8081286   0.4422713  )
        41           Zn  tau(  41) = (   0.2999926   0.0573726   0.1601639  )
        42           Zn  tau(  42) = (   0.1996381   0.1155189   0.0003075  )
        43           O   tau(  43) = (   0.2998359   0.0579636   0.2829281  )
        44           O   tau(  44) = (   0.2005041   0.1172420   0.1217052  )
        45           Zn  tau(  45) = (   0.2999461   0.0577389   0.4806899  )
        46           Zn  tau(  46) = (   0.2000862   0.1151379   0.3200444  )
        47           O   tau(  47) = (   0.2994325   0.0590020   0.6026208  )
        48           O   tau(  48) = (   0.2002154   0.1251562   0.4454818  )
        49           Zn  tau(  49) = (   0.1998480   0.2315855   0.1620480  )
        50           Zn  tau(  50) = (   0.1002400   0.2878204   0.0001971  )
        51           O   tau(  51) = (   0.2000859   0.2317444   0.2842297  )
        52           O   tau(  52) = (   0.1002140   0.2896872   0.1217669  )
        53           Al  tau(  53) = (   0.2002441   0.2311836   0.4806245  )
        54           Zn  tau(  54) = (   0.0992796   0.2891533   0.3205879  )
        55           O   tau(  55) = (   0.2005974   0.2315328   0.5929608  )
        56           O   tau(  56) = (   0.1084727   0.2849831   0.4458796  )
        57           Zn  tau(  57) = (   0.0998000   0.4041554   0.1609864  )
        58           Zn  tau(  58) = (   0.0006145   0.4611794   0.6411876  )
        59           O   tau(  59) = (   0.0993968   0.4046451   0.2831899  )
        60           O   tau(  60) = (   0.0005092   0.4709283   0.1251015  )
[...]
       186           Zn  tau( 186) = (   0.4998195   0.6354483   0.0003075  )
       187           O   tau( 187) = (   0.5997628   0.5774522   0.2829281  )
       188           O   tau( 188) = (   0.4987603   0.6338369   0.1217052  )
       189           Zn  tau( 189) = (   0.6000125   0.5774691   0.4806899  )
       190           Zn  tau( 190) = (   0.5003735   0.6352509   0.3200444  )
       191           O   tau( 191) = (   0.5986618   0.5772823   0.6026208  )
       192           O   tau( 192) = (   0.4917620   0.6301298   0.4454818  )
       193           Zn  tau( 193) = (   0.4998879   0.7503326   0.1604180  )
       194           Zn  tau( 194) = (   0.4004345   0.8086904   0.6413627  )
       195           O   tau( 195) = (   0.4999072   0.7498913   0.2831840  )
       196           O   tau( 196) = (   0.3995688   0.8079285   0.1222082  )
       197           Zn  tau( 197) = (   0.5005934   0.7508462   0.4802942  )
       198           Zn  tau( 198) = (   0.3997755   0.8088739   0.3197244  )
       199           O   tau( 199) = (   0.4997803   0.7497371   0.6021602  )
       200           O   tau( 200) = (   0.4003668   0.8072600   0.4421786  )

     number of k points=     1
                       cart. coord. in units 2pi/alat
        k(    1) = (   0.0000000   0.0000000   0.0000000), wk =   2.0000000

     Initial potential from superposition of free atoms

     starting charge 1763.97504, renormalised to 1760.00000
     Number of +U iterations with fixed ns =  0
     Starting occupations:
 --- enter write_ns ---
 LDA+U parameters:
U( 1)     = 10.50000000
alpha( 1) =  0.00000000
U( 2)     =  7.00000000
alpha( 2) =  0.00000000
atom    1   Tr[ns(na)] =  10.00000
    eigenvalues:
  1.000  1.000  1.000  1.000  1.000
    eigenvectors:
  1.000  0.000  0.000  0.000  0.000
  0.000  1.000  0.000  0.000  0.000
  0.000  0.000  1.000  0.000  0.000
  0.000  0.000  0.000  1.000  0.000
  0.000  0.000  0.000  0.000  1.000
    occupations:
  1.000  0.000  0.000  0.000  0.000
  0.000  1.000  0.000  0.000  0.000
  0.000  0.000  1.000  0.000  0.000
  0.000  0.000  0.000  1.000  0.000
  0.000  0.000  0.000  0.000  1.000
atom    2   Tr[ns(na)] =  10.00000
    eigenvalues:
  1.000  1.000  1.000  1.000  1.000
    eigenvectors:
  1.000  0.000  0.000  0.000  0.000
  0.000  1.000  0.000  0.000  0.000
  0.000  0.000  1.000  0.000  0.000
  0.000  0.000  0.000  1.000  0.000
  0.000  0.000  0.000  0.000  1.000
    occupations:
  1.000  0.000  0.000  0.000  0.000
  0.000  1.000  0.000  0.000  0.000
  0.000  0.000  1.000  0.000  0.000
[...]
  0.777  0.008  0.215
    occupations:
  0.962  0.001  0.001
  0.001  0.963  0.001
  0.001  0.001  0.962
atom  173   Tr[ns(na)] =   9.99193
    eigenvalues:
  0.999  0.999  0.999  1.000  1.000
    eigenvectors:
  0.180  0.491  0.328  0.000  0.001
  0.001  0.121  0.203  0.654  0.020
  0.251  0.037  0.010  0.022  0.680
  0.565  0.100  0.037  0.010  0.287
  0.002  0.251  0.421  0.314  0.012
    occupations:
  0.999  0.000 -0.000 -0.000  0.000
  0.000  0.999 -0.000  0.000 -0.000
 -0.000 -0.000  0.999 -0.000 -0.000
 -0.000  0.000 -0.000  0.999  0.000
  0.000 -0.000 -0.000  0.000  0.999
atom  174   Tr[ns(na)] =   9.99166
    eigenvalues:
  0.999  0.999  0.999  1.000  1.000
    eigenvectors:
  0.185  0.695  0.119  0.000  0.001
  0.131  0.002  0.259  0.085  0.523
  0.125  0.112  0.097  0.604  0.062
  0.321  0.191  0.154  0.279  0.054
  0.238  0.000  0.371  0.032  0.360
    occupations:
  0.999  0.000  0.000 -0.000 -0.000
  0.000  0.999  0.000 -0.000  0.000
  0.000  0.000  0.999  0.001 -0.000
 -0.000 -0.000  0.001  0.999  0.000
 -0.000  0.000 -0.000  0.000  0.999
atom  175   Tr[ns(na)] =   5.75514
    eigenvalues:
  0.958  0.960  0.960
    eigenvectors:
  0.152  0.337  0.511
  0.728  0.270  0.002
  0.120  0.393  0.487
    occupations:
  0.960 -0.001  0.000
 -0.001  0.958  0.000
  0.000  0.000  0.960
atom  176   Tr[ns(na)] =   5.75344
    eigenvalues:
  0.958  0.959  0.960
    eigenvectors:
  0.667  0.270  0.064
  0.266  0.727  0.007
  0.067  0.004  0.929
    occupations:
  0.958  0.000  0.000
  0.000  0.959 -0.000
  0.000 -0.000  0.960
atom  177   Tr[ns(na)] =   9.99180
    eigenvalues:
  0.999  0.999  0.999  1.000  1.000
    eigenvectors:
  0.072  0.703  0.222  0.000  0.003
  0.238  0.034  0.000  0.217  0.511
  0.021  0.062  0.207  0.467  0.243
  0.031  0.117  0.561  0.225  0.066
  0.638  0.084  0.010  0.091  0.177
    occupations:
  0.999 -0.000  0.000  0.000  0.000
 -0.000  0.999 -0.000 -0.000 -0.001
  0.000 -0.000  1.000 -0.000 -0.000
  0.000 -0.000 -0.000  0.999 -0.000
  0.000 -0.001 -0.000 -0.000  0.999
atom  178   Tr[ns(na)] =   9.99148
    eigenvalues:
  0.999  0.999  0.999  1.000  1.000
    eigenvectors:
  0.001  0.559  0.440  0.000  0.000
  0.053  0.117  0.136  0.654  0.041
  0.269  0.019  0.033  0.038  0.641
  0.564  0.043  0.072  0.020  0.301
  0.114  0.262  0.320  0.289  0.017
    occupations:
  0.999  0.000  0.000 -0.000 -0.000
  0.000  0.999  0.000 -0.000  0.000
  0.000  0.000  0.999  0.001 -0.000
 -0.000 -0.000  0.001  0.999  0.000
 -0.000  0.000 -0.000  0.000  0.999
atom  179   Tr[ns(na)] =   5.75547
    eigenvalues:
  0.959  0.959  0.960
    eigenvectors:
  0.111  0.628  0.261
  0.034  0.344  0.621
  0.854  0.028  0.118
    occupations:
  0.959 -0.000  0.000
 -0.000  0.959 -0.000
  0.000 -0.000  0.959
atom  180   Tr[ns(na)] =   5.75505
    eigenvalues:
  0.958  0.959  0.960
    eigenvectors:
  0.019  0.020  0.961
  0.814  0.182  0.004
  0.167  0.798  0.035
    occupations:
  0.960 -0.000 -0.000
 -0.000  0.959 -0.000
 -0.000 -0.000  0.959
atom  181   Tr[ns(na)] =   9.99169
    eigenvalues:
  0.999  0.999  0.999  1.000  1.000
    eigenvectors:
  0.089  0.001  0.910  0.000  0.000
  0.227  0.068  0.021  0.118  0.566
  0.059  0.254  0.007  0.564  0.115
  0.132  0.530  0.018  0.267  0.054
  0.493  0.147  0.043  0.051  0.265
    occupations:
  0.999  0.000  0.000  0.000  0.000
  0.000  0.999 -0.000 -0.000 -0.001
  0.000 -0.000  0.999 -0.000 -0.000
  0.000 -0.000 -0.000  0.999 -0.000
  0.000 -0.001 -0.000 -0.000  0.999
atom  182   Tr[ns(na)] =   9.99146
    eigenvalues:
  0.999  0.999  0.999  1.000  1.000
    eigenvectors:
  0.006  0.285  0.709  0.000  0.000
  0.093  0.163  0.057  0.060  0.628
  0.226  0.051  0.035  0.633  0.055
  0.482  0.124  0.082  0.284  0.028
  0.193  0.377  0.118  0.023  0.290
    occupations:
  0.999  0.000  0.000 -0.000 -0.000
  0.000  0.999  0.000 -0.000  0.001
  0.000  0.000  0.999  0.001 -0.000
 -0.000 -0.000  0.001  0.999  0.000
 -0.000  0.001 -0.000  0.000  0.999
atom  183   Tr[ns(na)] =   5.75548
    eigenvalues:
  0.958  0.959  0.960
    eigenvectors:
  0.242  0.009  0.749
  0.022  0.977  0.001
  0.736  0.014  0.251
    occupations:
  0.960  0.000 -0.001
  0.000  0.959  0.000
 -0.001  0.000  0.959
atom  184   Tr[ns(na)] =   5.75529
    eigenvalues:
  0.958  0.959  0.960
    eigenvectors:
  0.119  0.000  0.881
  0.782  0.109  0.108
  0.099  0.891  0.011
    occupations:
  0.960 -0.001 -0.000
 -0.001  0.959 -0.000
 -0.000 -0.000  0.959
atom  185   Tr[ns(na)] =   9.99182
    eigenvalues:
  0.999  0.999  0.999  1.000  1.000
    eigenvectors:
  0.063  0.013  0.923  0.000  0.000
  0.254  0.058  0.010  0.614  0.064
  0.046  0.240  0.016  0.067  0.631
  0.102  0.569  0.027  0.030  0.271
  0.535  0.119  0.023  0.289  0.034
    occupations:
  0.999  0.000 -0.000  0.000  0.000
  0.000  0.999 -0.000 -0.000 -0.001
 -0.000 -0.000  0.999 -0.000 -0.000
  0.000 -0.000 -0.000  0.999 -0.000
  0.000 -0.001 -0.000 -0.000  0.999
atom  186   Tr[ns(na)] =   9.99171
    eigenvalues:
  0.999  0.999  0.999  1.000  1.000
    eigenvectors:
  0.007  0.871  0.121  0.000  0.001
  0.079  0.038  0.262  0.120  0.502
  0.227  0.025  0.087  0.570  0.091
  0.511  0.035  0.116  0.267  0.071
  0.176  0.032  0.414  0.043  0.335
    occupations:
  0.999  0.000  0.000 -0.000 -0.000
  0.000  0.999  0.000 -0.000  0.000
  0.000  0.000  0.999  0.001 -0.000
 -0.000 -0.000  0.001  0.999  0.000
 -0.000  0.000 -0.000  0.000  0.999
atom  187   Tr[ns(na)] =   5.75485
    eigenvalues:
  0.958  0.959  0.960
    eigenvectors:
  0.188  0.267  0.545
  0.596  0.044  0.360
  0.216  0.689  0.095
    occupations:
  0.959 -0.001  0.000
 -0.001  0.959  0.001
  0.000  0.001  0.959
atom  188   Tr[ns(na)] =   5.75352
    eigenvalues:
  0.958  0.959  0.960
    eigenvectors:
  0.598  0.402  0.000
  0.363  0.540  0.097
  0.039  0.058  0.903
    occupations:
  0.958  0.000  0.000
  0.000  0.959 -0.000
  0.000 -0.000  0.960
atom  189   Tr[ns(na)] =   9.99172
    eigenvalues:
  0.998  0.999  0.999  1.000  1.000
    eigenvectors:
  0.106  0.670  0.221  0.000  0.003
  0.152  0.009  0.160  0.654  0.026
  0.102  0.100  0.055  0.028  0.715
  0.308  0.212  0.226  0.006  0.248
  0.332  0.009  0.339  0.312  0.008
    occupations:
  0.999  0.000 -0.000 -0.000  0.000
  0.000  0.999 -0.000 -0.000 -0.000
 -0.000 -0.000  1.000 -0.000 -0.000
 -0.000 -0.000 -0.000  0.999 -0.000
  0.000 -0.000 -0.000 -0.000  0.999
atom  190   Tr[ns(na)] =   9.99161
    eigenvalues:
  0.999  0.999  0.999  1.000  1.000
    eigenvectors:
  0.012  0.040  0.948  0.000  0.000
  0.009  0.337  0.014  0.476  0.163
  0.328  0.008  0.007  0.161  0.496
  0.632  0.012  0.012  0.088  0.255
  0.019  0.603  0.018  0.274  0.086
    occupations:
  0.999  0.000  0.000 -0.000 -0.000
  0.000  0.999 -0.000 -0.000  0.001
  0.000 -0.000  0.999  0.001 -0.000
 -0.000 -0.000  0.001  0.999  0.000
 -0.000  0.001 -0.000  0.000  0.999
atom  191   Tr[ns(na)] =   5.75542
    eigenvalues:
  0.959  0.959  0.960
    eigenvectors:
  0.001  0.642  0.357
  0.957  0.021  0.021
  0.042  0.336  0.622
    occupations:
  0.959 -0.000 -0.000
 -0.000  0.959  0.000
 -0.000  0.000  0.959
atom  192   Tr[ns(na)] =   5.77404
    eigenvalues:
  0.961  0.962  0.964
    eigenvectors:
  0.001  0.830  0.169
  0.228  0.123  0.650
  0.772  0.047  0.181
    occupations:
  0.962  0.001  0.000
  0.001  0.963  0.001
  0.000  0.001  0.962
atom  193   Tr[ns(na)] =   9.99176
    eigenvalues:
  0.999  0.999  0.999  1.000  1.000
    eigenvectors:
  0.002  0.529  0.469  0.000  0.000
  0.310  0.001  0.000  0.059  0.631
  0.001  0.164  0.167  0.609  0.059
  0.001  0.304  0.364  0.305  0.027
  0.687  0.002  0.000  0.028  0.283
    occupations:
  0.999 -0.000  0.000  0.000  0.000
 -0.000  0.999 -0.000 -0.000 -0.001
  0.000 -0.000  0.999 -0.000 -0.000
  0.000 -0.000 -0.000  0.999  0.000
  0.000 -0.001 -0.000  0.000  0.999
atom  194   Tr[ns(na)] =   9.99151
    eigenvalues:
  0.999  0.999  0.999  1.000  1.000
    eigenvectors:
  0.040  0.006  0.954  0.000  0.000
  0.001  0.317  0.002  0.018  0.662
  0.319  0.001  0.015  0.648  0.017
  0.637  0.002  0.027  0.326  0.009
  0.003  0.675  0.002  0.008  0.312
    occupations:
  0.999 -0.000  0.000 -0.000 -0.000
 -0.000  0.999  0.000 -0.000  0.001
  0.000  0.000  0.999  0.001 -0.000
 -0.000 -0.000  0.001  0.999  0.000
 -0.000  0.001 -0.000  0.000  0.999
atom  195   Tr[ns(na)] =   5.75532
    eigenvalues:
  0.958  0.960  0.960
    eigenvectors:
  0.214  0.084  0.702
  0.008  0.857  0.136
  0.779  0.059  0.162
    occupations:
  0.960  0.000 -0.001
  0.000  0.960  0.000
 -0.001  0.000  0.958
atom  196   Tr[ns(na)] =   5.75451
    eigenvalues:
  0.959  0.959  0.960
    eigenvectors:
  0.173  0.003  0.825
  0.517  0.397  0.087
  0.310  0.601  0.089
    occupations:
  0.960 -0.000 -0.000
 -0.000  0.959 -0.000
 -0.000 -0.000  0.959
atom  197   Tr[ns(na)] =   9.99185
    eigenvalues:
  0.999  0.999  0.999  1.000  1.000
    eigenvectors:
  0.042  0.724  0.228  0.000  0.005
  0.246  0.023  0.001  0.313  0.417
  0.014  0.078  0.207  0.368  0.333
  0.016  0.129  0.556  0.194  0.105
  0.683  0.046  0.007  0.125  0.139
    occupations:
  0.999 -0.000  0.000  0.000  0.000
 -0.000  0.999 -0.000 -0.000 -0.001
  0.000 -0.000  1.000 -0.000 -0.000
  0.000 -0.000 -0.000  0.999  0.000
  0.000 -0.001 -0.000  0.000  0.999
atom  198   Tr[ns(na)] =   9.99152
    eigenvalues:
  0.999  0.999  0.999  1.000  1.000
    eigenvectors:
  0.064  0.378  0.558  0.000  0.000
  0.002  0.182  0.106  0.695  0.015
  0.289  0.003  0.021  0.015  0.673
  0.640  0.005  0.043  0.007  0.305
  0.006  0.432  0.273  0.283  0.006
    occupations:
  0.999  0.000  0.000 -0.000 -0.000
  0.000  0.999  0.000 -0.000  0.000
  0.000  0.000  0.999  0.001 -0.000
 -0.000 -0.000  0.001  0.999  0.000
 -0.000  0.000 -0.000  0.000  0.999
atom  199   Tr[ns(na)] =   5.75492
    eigenvalues:
  0.958  0.959  0.960
    eigenvectors:
  0.018  0.895  0.087
  0.107  0.057  0.836
  0.875  0.047  0.077
    occupations:
  0.959 -0.000  0.000
 -0.000  0.960 -0.000
  0.000 -0.000  0.959
atom  200   Tr[ns(na)] =   5.75513
    eigenvalues:
  0.958  0.959  0.960
    eigenvectors:
  0.009  0.021  0.970
  0.476  0.523  0.001
  0.515  0.457  0.029
    occupations:
  0.960  0.000 -0.000
  0.000  0.959 -0.000
 -0.000 -0.000  0.959
N of occupied +U levels = 1534.996039
 --- exit write_ns ---

          k = 0.0000 0.0000 0.0000 ( 15523 PWs)   bands (ev):

   -10.4337 -10.4119 -10.3959 -10.3617  -9.8709  -9.8235  -9.7903  -9.7757
    -9.7599  -9.7548  -9.7505  -9.7337  -9.7258  -9.7123  -9.7087  -9.6921
    -9.6562  -9.6135  -9.5986  -9.5768  -9.5550  -9.5394  -9.5351  -9.5246
    -9.5070  -9.4964  -9.4948  -9.4871  -9.4826  -9.4801  -9.4670  -9.4649
    -9.4623  -9.4498  -9.4486  -9.4436  -9.4409  -9.4245  -9.4232  -9.4205
    -9.4063  -9.4039  -9.3982  -9.3964  -9.3931  -9.3868  -9.3767  -9.3726
    -9.3719  -9.3693  -9.3505  -9.3428  -9.3416  -9.3369  -9.3317  -9.3251
    -9.3248  -9.3184  -9.3136  -9.3028  -9.2997  -9.2968  -9.2910  -9.2898
    -9.2852  -9.2777  -9.2744  -9.2624  -9.2510  -9.2508  -9.2499  -9.2419
    -9.2413  -9.2386  -9.2357  -9.2323  -9.2280  -9.2274  -9.2151  -9.2118
    -9.2086  -9.2083  -9.1982  -9.1974  -9.1898  -9.1844  -9.1761  -9.1670
    -9.1669  -9.1621  -9.1503  -9.1458  -9.1440  -9.1232  -9.1178  -9.1016
    -9.0996  -9.0931  -9.0789  -9.0670  -3.0530  -3.0384  -2.9995  -2.9811
    -2.9198  -2.9150  -2.8996  -2.8960  -2.8654  -2.8566  -2.8456  -2.8095
    -2.7970  -2.7757  -2.7752  -2.7643  -2.7426  -2.7418  -2.7323  -2.7222
    -2.7172  -2.7120  -2.7037  -2.6952  -2.6835  -2.6680  -2.6648  -2.6604
    -2.6561  -2.6465  -2.6439  -2.6416  -2.6299  -2.6233  -2.6158  -2.6097
    -2.6010  -2.6009  -2.5932  -2.5762  -2.5686  -2.5638  -2.5572  -2.5531
    -2.5487  -2.5477  -2.5433  -2.5402  -2.5382  -2.5269  -2.5242  -2.5236
    -2.5183  -2.5161  -2.5128  -2.5063  -2.5059  -2.5052  -2.5030  -2.4864
    -2.4841  -2.4787  -2.4722  -2.4680  -2.4656  -2.4554  -2.4400  -2.4316
    -2.4287  -2.4262  -2.4178  -2.4166  -2.4053  -2.3932  -2.3907  -2.3751
    -2.3733  -2.3573  -2.3518  -2.3480  -2.3440  -2.3248  -2.3215  -2.3202
    -2.3161  -2.2977  -2.2868  -2.2731  -2.2679  -2.2629  -2.2596  -2.2477
    -2.2413  -2.2399  -2.2333  -2.2313  -2.2224  -2.2105  -2.2080  -2.1990
    -2.1939  -2.1935  -2.1903  -2.1878  -2.1778  -2.1733  -2.1643  -2.1615
    -2.1570  -2.1563  -2.1507  -2.1473  -2.1452  -2.1386  -2.1337  -2.1273
    -2.1252  -2.1167  -2.1152  -2.1152  -2.1118  -2.1052  -2.0964  -2.0962
    -2.0868  -2.0856  -2.0832  -2.0697  -2.0694  -2.0648  -2.0607  -2.0588
    -2.0569  -2.0514  -2.0513  -2.0493  -2.0462  -2.0378  -2.0245  -2.0243
    -2.0241  -2.0204  -2.0149  -2.0118  -2.0093  -2.0060  -2.0002  -2.0001
    -1.9899  -1.9892  -1.9867  -1.9828  -1.9785  -1.9782  -1.9764  -1.9716
    -1.9673  -1.9604  -1.9599  -1.9562  -1.9518  -1.9502  -1.9475  -1.9423
    -1.9367  -1.9297  -1.9259  -1.9196  -1.9173  -1.9128  -1.9099  -1.8991
    -1.8899  -1.8887  -1.8827  -1.8724  -1.8702  -1.8635  -1.8627  -1.8520
    -1.8458  -1.8419  -1.8395  -1.8321  -1.8283  -1.8227  -1.8197  -1.8140
    -1.8139  -1.8046  -1.8004  -1.7991  -1.7894  -1.7807  -1.7778  -1.7722
    -1.7687  -1.7609  -1.7597  -1.7568  -1.7475  -1.7445  -1.7427  -1.7248
    -1.7218  -1.7168  -1.7136  -1.7045  -1.7043  -1.6963  -1.6873  -1.6870
    -1.6732  -1.6698  -1.6656  -1.6632  -1.6601  -1.6507  -1.6498  -1.6483
    -1.6421  -1.6385  -1.6292  -1.6223  -1.6219  -1.6190  -1.5978  -1.5969
    -1.5939  -1.5905  -1.5869  -1.5825  -1.5738  -1.5565  -1.5564  -1.5508
    -1.5414  -1.5349  -1.5275  -1.5231  -1.5195  -1.5147  -1.5003  -1.4919
    -1.4826  -1.4797  -1.4710  -1.4662  -1.4651  -1.4603  -1.4525  -1.4464
    -1.4379  -1.4341  -1.4288  -1.4243  -1.4197  -1.4182  -1.4142  -1.4120
    -1.4087  -1.4010  -1.3974  -1.3899  -1.3885  -1.3864  -1.3824  -1.3772
    -1.3757  -1.3689  -1.3634  -1.3548  -1.3528  -1.3468  -1.3414  -1.3407
    -1.3350  -1.3344  -1.3227  -1.3194  -1.3173  -1.3158  -1.3032  -1.2970
    -1.2951  -1.2838  -1.2816  -1.2741  -1.2614  -1.2523  -1.2494  -1.2466
    -1.2405  -1.2367  -1.2346  -1.2277  -1.2253  -1.2166  -1.2079  -1.2028
    -1.2002  -1.1959  -1.1817  -1.1759  -1.1717  -1.1658  -1.1544  -1.1517
    -1.1405  -1.1317  -1.1264  -1.1227  -1.1130  -1.1074  -1.1018  -1.0947
    -1.0884  -1.0816  -1.0812  -1.0756  -1.0705  -1.0689  -1.0682  -1.0596
    -1.0561  -1.0556  -1.0447  -1.0415  -1.0388  -1.0334  -1.0253  -1.0244
    -1.0228  -1.0183  -1.0172  -1.0101  -1.0042  -1.0022  -0.9945  -0.9910
    -0.9856  -0.9807  -0.9802  -0.9797  -0.9693  -0.9596  -0.9557  -0.9549
    -0.9543  -0.9482  -0.9438  -0.9408  -0.9347  -0.9329  -0.9264  -0.9232
    -0.9201  -0.9168  -0.9158  -0.9136  -0.9093  -0.9003  -0.8942  -0.8924
    -0.8910  -0.8817  -0.8747  -0.8745  -0.8653  -0.8622  -0.8611  -0.8590
    -0.8553  -0.8545  -0.8476  -0.8467  -0.8436  -0.8402  -0.8339  -0.8311
[...]
    22.5527  22.5591  22.5959  22.6221  22.6257  22.6607  22.6627  22.6756
    22.6778  22.7127  22.7205  22.7353  22.7404  22.7457  22.7567  22.7747
    22.7779  22.7817  22.7978  22.8146  22.8184  22.8313  22.8352  22.8598
    22.8712  22.8742  22.8924  22.8994  22.9014  22.9037  22.9246  22.9288
    22.9445  22.9480  22.9584  22.9589  22.9744  22.9750  22.9812  22.9979
    23.0044  23.0169  23.0296  23.0512  23.0669  23.1076  23.1088  23.3143
    23.3679  23.4379  23.4744  23.4843  23.5067  23.5571  23.5654  23.5926
    23.5930  23.6163  23.6263  23.6807  23.6877  23.7205  23.7410  23.7462
    23.7699  23.7763  23.8460  23.8487  23.9436  23.9662  23.9777  23.9829
    23.9902  24.0230  24.1486  24.2193  24.2364  24.2761  24.3023  24.3086
    24.5092  24.5608  24.5666  24.6429  24.6907  24.7159  24.8699  24.8885
    24.8921  24.9141  24.9374  24.9511  25.0978  25.1059  25.1264  25.1507
    25.1697  25.1955  25.1957  25.2171  25.2365  25.2575  25.2828  25.3164
    25.3900  25.3901  25.3957  25.4280  25.4291  25.4655  25.5467  25.5708
    25.5804  25.5894  25.5900  25.6277  25.6445  25.6686  25.7166  25.7471

     highest occupied, lowest unoccupied level (ev):     6.1650    9.7510

!    total energy              =  -15359.43393463 Ry
     Harris-Foulkes estimate   =  -15359.43393480 Ry
     estimated scf accuracy    <       0.00000028 Ry

     The total energy is the sum of the following terms:

     one-electron contribution =   -7787.05908458 Ry
     hartree contribution      =    5735.95259604 Ry
     xc contribution           =   -2513.38727762 Ry
     ewald contribution        =  -10801.22335905 Ry
     Hubbard energy            =       6.28319058 Ry

     convergence has been achieved in   9 iterations

     Writing output data file espresso.save

     General routines

     Parallel routines

     Hubbard U routines

   This run was terminated on:   7:13: 6  12Jan2023

   JOB DONE.