     Program PWSCF v.6.1 starts on 13Jan2023 at 20: 6:46

     Current dimensions of program PWSCF are:
     Max number of different atomic species (ntypx) = 10
     Max number of k-points (npk) =  40000
     Max angular momentum in pseudopotentials (lmaxx) =  3
               file O.pbe-rrkjus.UPF: wavefunction(s)  2S renormalized

     gamma-point specific algorithms are used

     Subspace diagonalization in iterative solution of the eigenvalue problem:
     a serial algorithm will be used

     Title:
     zno_al5_crystal_opted(SCF)

     bravais-lattice index     =            0
     lattice parameter (alat)  =      29.7222  a.u.
     unit-cell volume          =   14590.1235 (a.u.)^3
     number of atoms/cell      =          200
     number of atomic types    =            3
     number of electrons       =      1750.00
     number of Kohn-Sham states=         1320
     kinetic-energy cutoff     =      25.0000  Ry
     charge density cutoff     =     225.0000  Ry
     convergence threshold     =      1.0E-06
     mixing beta               =       0.7000
     number of iterations used =            8  plain     mixing
     Exchange-correlation      =  SLA  PW   PBE  PBE ( 1  4  3  4 0 0)

     celldm(1)=  29.722176  celldm(2)=   0.000000  celldm(3)=   0.000000
     celldm(4)=   0.000000  celldm(5)=   0.000000  celldm(6)=   0.000000

     crystal axes: (cart. coord. in units of alat)
               a(1) = (   1.000000   0.000014  -0.000044 )
               a(2) = (  -0.499988   0.866032   0.000044 )
               a(3) = (  -0.000028   0.000016   0.641623 )

     reciprocal axes: (cart. coord. in units 2 pi/alat)
               b(1) = (  0.999992  0.577327  0.000029 )
               b(2) = ( -0.000016  1.154682 -0.000030 )
               b(3) = (  0.000069 -0.000040  1.558549 )

     PseudoPot. # 1 for Zn read from file:
     C:\Users\Dimas\.burai\.pseudopot/Zn.pbe-van.UPF
     MD5 check sum: 8a117cd81793830d6ad9bd6443d05479
     Pseudo is Ultrasoft, Zval = 12.0
     Generated by new atomic code, or converted to UPF format
     Using radial grid of  869 points,  6 beta functions with:
                l(1) =   0
                l(2) =   0
                l(3) =   1
                l(4) =   1
                l(5) =   2
                l(6) =   2
     Q(r) pseudized with  8 coefficients,  rinner =    0.800   0.800   0.800
                                                       0.800   0.800

     PseudoPot. # 2 for O  read from file:
     C:\Users\Dimas\.burai\.pseudopot/O.pbe-rrkjus.UPF
     MD5 check sum: 390ba29e75625707450f3bd3f0eb6be9
     Pseudo is Ultrasoft, Zval =  6.0
     Generated by new atomic code, or converted to UPF format
     Using radial grid of 1269 points,  4 beta functions with:
                l(1) =   0
                l(2) =   0
                l(3) =   1
                l(4) =   1
     Q(r) pseudized with 0 coefficients

     PseudoPot. # 3 for Al read from file:
     C:\Users\Dimas\.burai\.pseudopot/Al.pbe-rrkj.UPF
     MD5 check sum: b5320f8fdc07ab0d74f109f4aa58256b
     Pseudo is Norm-conserving, Zval =  3.0
     Generated by new atomic code, or converted to UPF format
     Using radial grid of  879 points,  4 beta functions with:
                l(1) =   0
                l(2) =   0
                l(3) =   1
                l(4) =   1

     atomic species   valence    mass     pseudopotential
        Zn            12.00    65.39000     Zn( 1.00)
        O              6.00    15.99940     O ( 1.00)
        Al             3.00    26.98154     Al( 1.00)

     Simplified LDA+U calculation (l_max = 2) with parameters (eV):
     atomic species    L          U    alpha       J0     beta
        Zn             2    10.5000   0.0000   0.0000   0.0000
        O              1     7.0000   0.0000   0.0000   0.0000

      2 Sym. Ops. (no inversion) found

   Cartesian axes

     site n.     atom                  positions (alat units)
         1           Zn  tau(   1) = (   0.1001202   0.0577140   0.1595032  )
         2           Zn  tau(   2) = (  -0.0000282   0.1146756   0.6404270  )
         3           O   tau(   3) = (   0.1007758   0.0588239   0.2823007  )
         4           O   tau(   4) = (   0.0002907   0.1161779   0.1212164  )
         5           Zn  tau(   5) = (   0.0997836   0.0570163   0.4790364  )
         6           Zn  tau(   6) = (  -0.0006845   0.1157802   0.3182767  )
         7           O   tau(   7) = (   0.1006222   0.0584293   0.6008805  )
         8           O   tau(   8) = (   0.0011476   0.1162918   0.4406828  )
         9           Zn  tau(   9) = (  -0.0011109   0.2304363   0.1604071  )
        10           Zn  tau(  10) = (  -0.0992668   0.2878301   0.6400444  )
        11           O   tau(  11) = (   0.0007172   0.2337296   0.2831687  )
        12           O   tau(  12) = (  -0.1001514   0.2899464   0.1212868  )
        13           Zn  tau(  13) = (  -0.0002101   0.2302124   0.4807628  )
        14           Zn  tau(  14) = (  -0.1015912   0.2888949   0.3207962  )
        15           O   tau(  15) = (   0.0019995   0.2311613   0.6026210  )
        16           O   tau(  16) = (  -0.0986576   0.2894853   0.4431400  )
        17           Zn  tau(  17) = (  -0.1009305   0.4040671   0.1601734  )
        18           Zn  tau(  18) = (  -0.2000649   0.4618480   0.6394758  )
        19           O   tau(  19) = (  -0.0978559   0.4050506   0.2821412  )
        20           O   tau(  20) = (  -0.1998010   0.4610276   0.1206616  )
        21           Zn  tau(  21) = (  -0.0998972   0.4048678   0.4818977  )
        22           Zn  tau(  22) = (  -0.2002778   0.4613046   0.3206740  )
        23           O   tau(  23) = (  -0.0981287   0.4045505   0.6044257  )
        24           O   tau(  24) = (  -0.1997982   0.4617650   0.4429904  )
        25           Zn  tau(  25) = (  -0.2001821   0.5767141   0.1588803  )
        26           Zn  tau(  26) = (  -0.3008186   0.6354563   0.6399460  )
        27           O   tau(  27) = (  -0.1983270   0.5764236   0.2808636  )
        28           O   tau(  28) = (  -0.2990746   0.6343380   0.1209110  )
        29           Zn  tau(  29) = (  -0.2003758   0.5779806   0.4804481  )
        30           Zn  tau(  30) = (  -0.2991369   0.6347700   0.3184846  )
        31           O   tau(  31) = (  -0.1996342   0.5778279   0.6032129  )
        32           O   tau(  32) = (  -0.3007848   0.6349160   0.4410879  )
        33           Zn  tau(  33) = (  -0.3000367   0.7505908   0.1581621  )
        34           Zn  tau(  34) = (  -0.4005767   0.8086376   0.6400529  )
        35           O   tau(  35) = (  -0.2993056   0.7501687   0.2804778  )
        36           O   tau(  36) = (  -0.4003437   0.8085031   0.1208590  )
        37           Zn  tau(  37) = (  -0.2998379   0.7504761   0.4797383  )
        38           Zn  tau(  38) = (  -0.3994884   0.8080093   0.3177690  )
        39           O   tau(  39) = (  -0.3004358   0.7508213   0.6018763  )
        40           O   tau(  40) = (  -0.3998494   0.8082177   0.4405692  )
        41           Zn  tau(  41) = (   0.2997932   0.0573097   0.1597966  )
        42           Zn  tau(  42) = (   0.1996057   0.1147494   0.6412882  )
        43           O   tau(  43) = (   0.2998968   0.0587452   0.2826224  )
        44           O   tau(  44) = (   0.2003543   0.1174529   0.1210882  )
        45           Zn  tau(  45) = (   0.2999701   0.0572486   0.4797526  )
        46           Zn  tau(  46) = (   0.2000954   0.1154557   0.3200265  )
        47           O   tau(  47) = (   0.2994782   0.0589050   0.6016873  )
        48           O   tau(  48) = (   0.2002795   0.1256063   0.4453235  )
        49           Zn  tau(  49) = (   0.1996330   0.2307596   0.1626491  )
        50           Zn  tau(  50) = (   0.1002454   0.2875186   0.0018784  )
        51           O   tau(  51) = (   0.2001136   0.2332222   0.2849655  )
        52           O   tau(  52) = (   0.1000920   0.2905650   0.1237925  )
        53           Al  tau(  53) = (   0.2001984   0.2308812   0.4818877  )
        54           Zn  tau(  54) = (   0.0991577   0.2888613   0.3221213  )
        55           O   tau(  55) = (   0.2004819   0.2318237   0.5941614  )
        56           O   tau(  56) = (   0.1088497   0.2859123   0.4467765  )
        57           Zn  tau(  57) = (   0.0986098   0.4038803   0.1631616  )
        58           Zn  tau(  58) = (   0.0007038   0.4609398   0.0013322  )
        59           O   tau(  59) = (   0.1075119   0.4091725   0.2885985  )
        60           O   tau(  60) = (   0.0009723   0.4704695   0.1272335  )
[...]
       186           Zn  tau( 186) = (   0.5004394   0.6358085   0.6412882  )
       187           O   tau( 187) = (   0.5990859   0.5769560   0.2826224  )
       188           O   tau( 188) = (   0.4984723   0.6338085   0.1210882  )
       189           Zn  tau( 189) = (   0.6004187   0.5776409   0.4797526  )
       190           Zn  tau( 190) = (   0.5000726   0.6350313   0.3200265  )
       191           O   tau( 191) = (   0.5987383   0.5772387   0.6016873  )
       192           O   tau( 192) = (   0.4913740   0.6297966   0.4453235  )
       193           Zn  tau( 193) = (   0.5000908   0.7504832   0.1595032  )
       194           Zn  tau( 194) = (   0.4006863   0.8087335   0.6404270  )
       195           O   tau( 195) = (   0.4994573   0.7493605   0.2823007  )
       196           O   tau( 196) = (   0.3995447   0.8077061   0.1212164  )
       197           Zn  tau( 197) = (   0.5005266   0.7511236   0.4790364  )
       198           Zn  tau( 198) = (   0.3994015   0.8087495   0.3182767  )
       199           O   tau( 199) = (   0.4997222   0.7496908   0.6008805  )
       200           O   tau( 200) = (   0.3998746   0.8069071   0.4406828  )

     number of k points=     1
                       cart. coord. in units 2pi/alat
        k(    1) = (   0.0000000   0.0000000   0.0000000), wk =   2.0000000

     Initial potential from superposition of free atoms

     starting charge 1754.97260, renormalised to 1750.00000
     Number of +U iterations with fixed ns =  0
     Starting occupations:
 --- enter write_ns ---
 LDA+U parameters:
U( 1)     = 10.50000000
alpha( 1) =  0.00000000
U( 2)     =  7.00000000
alpha( 2) =  0.00000000
atom    1   Tr[ns(na)] =  10.00000
    eigenvalues:
  1.000  1.000  1.000  1.000  1.000
    eigenvectors:
  1.000  0.000  0.000  0.000  0.000
  0.000  1.000  0.000  0.000  0.000
  0.000  0.000  1.000  0.000  0.000
  0.000  0.000  0.000  1.000  0.000
  0.000  0.000  0.000  0.000  1.000
    occupations:
  1.000  0.000  0.000  0.000  0.000
  0.000  1.000  0.000  0.000  0.000
  0.000  0.000  1.000  0.000  0.000
  0.000  0.000  0.000  1.000  0.000
  0.000  0.000  0.000  0.000  1.000
atom    2   Tr[ns(na)] =  10.00000
    eigenvalues:
  1.000  1.000  1.000  1.000  1.000
    eigenvectors:
  1.000  0.000  0.000  0.000  0.000
  0.000  1.000  0.000  0.000  0.000
  0.000  0.000  1.000  0.000  0.000
  0.000  0.000  0.000  1.000  0.000
  0.000  0.000  0.000  0.000  1.000
    occupations:
  1.000  0.000  0.000  0.000  0.000
  0.000  1.000  0.000  0.000  0.000
  0.000  0.000  1.000  0.000  0.000
[...]
  0.773  0.013  0.214
    occupations:
  0.962  0.001  0.001
  0.001  0.963  0.001
  0.001  0.001  0.962
atom  173   Tr[ns(na)] =   9.99173
    eigenvalues:
  0.999  0.999  0.999  1.000  1.000
    eigenvectors:
  0.253  0.718  0.028  0.000  0.001
  0.004  0.021  0.307  0.657  0.012
  0.239  0.059  0.014  0.012  0.676
  0.500  0.161  0.028  0.007  0.304
  0.005  0.040  0.623  0.324  0.007
    occupations:
  0.999  0.000 -0.000 -0.000 -0.000
  0.000  0.999  0.000  0.000 -0.000
 -0.000  0.000  0.999 -0.001 -0.000
 -0.000  0.000 -0.001  0.999  0.000
 -0.000 -0.000 -0.000  0.000  0.999
atom  174   Tr[ns(na)] =   9.99146
    eigenvalues:
  0.999  0.999  0.999  1.000  1.000
    eigenvectors:
  0.225  0.666  0.108  0.001  0.001
  0.143  0.000  0.270  0.068  0.518
  0.111  0.125  0.104  0.610  0.050
  0.284  0.205  0.171  0.292  0.047
  0.238  0.004  0.346  0.029  0.384
    occupations:
  0.999  0.000  0.000 -0.000 -0.000
  0.000  0.999  0.000 -0.000  0.000
  0.000  0.000  0.999  0.001 -0.000
 -0.000 -0.000  0.001  0.999  0.000
 -0.000  0.000 -0.000  0.000  0.999
atom  175   Tr[ns(na)] =   5.75604
    eigenvalues:
  0.958  0.959  0.960
    eigenvectors:
  0.159  0.343  0.498
  0.700  0.299  0.000
  0.140  0.358  0.502
    occupations:
  0.960 -0.000  0.001
 -0.000  0.959  0.000
  0.001  0.000  0.960
atom  176   Tr[ns(na)] =   5.75400
    eigenvalues:
  0.958  0.959  0.960
    eigenvectors:
  0.833  0.117  0.051
  0.110  0.883  0.007
  0.057  0.000  0.943
    occupations:
  0.958  0.000  0.000
  0.000  0.959 -0.000
  0.000 -0.000  0.960
atom  177   Tr[ns(na)] =   9.99163
    eigenvalues:
  0.999  0.999  0.999  1.000  1.000
    eigenvectors:
  0.050  0.717  0.231  0.000  0.003
  0.256  0.025  0.001  0.209  0.509
  0.019  0.069  0.213  0.457  0.242
  0.023  0.129  0.545  0.237  0.066
  0.651  0.061  0.011  0.096  0.181
    occupations:
  0.999 -0.000  0.000  0.000  0.000
 -0.000  0.999 -0.000 -0.000 -0.001
  0.000 -0.000  1.000 -0.000 -0.000
  0.000 -0.000 -0.000  0.999  0.000
  0.000 -0.001 -0.000  0.000  0.999
atom  178   Tr[ns(na)] =   9.99134
    eigenvalues:
  0.999  0.999  0.999  1.000  1.000
    eigenvectors:
  0.005  0.552  0.443  0.000  0.000
  0.081  0.099  0.137  0.678  0.005
  0.262  0.047  0.034  0.007  0.650
  0.489  0.094  0.074  0.002  0.340
  0.163  0.209  0.312  0.312  0.004
    occupations:
  0.999  0.000  0.000 -0.000 -0.000
  0.000  0.999  0.000 -0.000  0.000
  0.000  0.000  0.999  0.001 -0.000
 -0.000 -0.000  0.001  0.999  0.000
 -0.000  0.000 -0.000  0.000  0.999
atom  179   Tr[ns(na)] =   5.75523
    eigenvalues:
  0.959  0.959  0.960
    eigenvectors:
  0.064  0.402  0.534
  0.914  0.002  0.084
  0.022  0.596  0.382
    occupations:
  0.959 -0.000  0.000
 -0.000  0.959 -0.000
  0.000 -0.000  0.959
atom  180   Tr[ns(na)] =   5.75547
    eigenvalues:
  0.958  0.959  0.960
    eigenvectors:
  0.083  0.059  0.858
  0.726  0.256  0.017
  0.191  0.684  0.125
    occupations:
  0.960 -0.000 -0.000
 -0.000  0.958 -0.000
 -0.000 -0.000  0.959
atom  181   Tr[ns(na)] =   9.99161
    eigenvalues:
  0.999  0.999  0.999  1.000  1.000
    eigenvectors:
  0.100  0.043  0.857  0.000  0.000
  0.203  0.078  0.049  0.137  0.533
  0.087  0.236  0.000  0.541  0.136
  0.197  0.480  0.000  0.259  0.064
  0.413  0.163  0.094  0.062  0.268
    occupations:
  0.999  0.000  0.000  0.000  0.000
  0.000  0.999 -0.000 -0.000 -0.001
  0.000 -0.000  0.999 -0.000 -0.000
  0.000 -0.000 -0.000  0.999 -0.000
  0.000 -0.001 -0.000 -0.000  0.999
atom  182   Tr[ns(na)] =   9.99145
    eigenvalues:
  0.999  0.999  0.999  1.000  1.000
    eigenvectors:
  0.002  0.601  0.397  0.000  0.000
  0.101  0.092  0.130  0.083  0.595
  0.215  0.034  0.053  0.618  0.080
  0.487  0.065  0.146  0.262  0.040
  0.195  0.208  0.274  0.037  0.286
    occupations:
  0.999  0.000  0.000 -0.000 -0.000
  0.000  0.999  0.000 -0.000  0.000
  0.000  0.000  0.999  0.001 -0.000
 -0.000 -0.000  0.001  0.999  0.000
 -0.000  0.000 -0.000  0.000  0.999
atom  183   Tr[ns(na)] =   5.75587
    eigenvalues:
  0.959  0.959  0.960
    eigenvectors:
  0.304  0.025  0.671
  0.023  0.969  0.008
  0.673  0.006  0.321
    occupations:
  0.960  0.000 -0.001
  0.000  0.959  0.000
 -0.001  0.000  0.959
atom  184   Tr[ns(na)] =   5.75518
    eigenvalues:
  0.958  0.959  0.960
    eigenvectors:
  0.151  0.001  0.849
  0.772  0.097  0.131
  0.077  0.902  0.020
    occupations:
  0.960 -0.001 -0.000
 -0.001  0.958 -0.000
 -0.000 -0.000  0.959
atom  185   Tr[ns(na)] =   9.99165
    eigenvalues:
  0.999  0.999  0.999  1.000  1.000
    eigenvectors:
  0.050  0.007  0.942  0.000  0.000
  0.257  0.070  0.019  0.460  0.193
  0.066  0.243  0.001  0.208  0.482
  0.142  0.548  0.000  0.094  0.216
  0.485  0.131  0.037  0.238  0.109
    occupations:
  0.999  0.000 -0.000  0.000  0.000
  0.000  0.999 -0.000 -0.000 -0.001
 -0.000 -0.000  0.999 -0.000 -0.000
  0.000 -0.000 -0.000  0.999 -0.000
  0.000 -0.001 -0.000 -0.000  0.999
atom  186   Tr[ns(na)] =   9.99146
    eigenvalues:
  0.999  0.999  0.999  1.000  1.000
    eigenvectors:
  0.004  0.868  0.127  0.000  0.001
  0.079  0.041  0.266  0.289  0.325
  0.250  0.022  0.086  0.381  0.261
  0.502  0.029  0.111  0.184  0.173
  0.165  0.040  0.410  0.146  0.240
    occupations:
  0.999  0.000  0.000 -0.000 -0.000
  0.000  0.999  0.000 -0.000  0.000
  0.000  0.000  0.999  0.001 -0.000
 -0.000 -0.000  0.001  0.999  0.000
 -0.000  0.000 -0.000  0.000  0.999
atom  187   Tr[ns(na)] =   5.75476
    eigenvalues:
  0.958  0.959  0.960
    eigenvectors:
  0.199  0.143  0.658
  0.666  0.040  0.294
  0.135  0.817  0.048
    occupations:
  0.960 -0.001  0.000
 -0.001  0.959  0.001
  0.000  0.001  0.959
atom  188   Tr[ns(na)] =   5.75444
    eigenvalues:
  0.958  0.958  0.960
    eigenvectors:
  0.005  0.989  0.006
  0.856  0.009  0.135
  0.139  0.002  0.859
    occupations:
  0.958  0.000 -0.000
  0.000  0.959 -0.001
 -0.000 -0.001  0.960
atom  189   Tr[ns(na)] =   9.99155
    eigenvalues:
  0.998  0.999  0.999  1.000  1.000
    eigenvectors:
  0.119  0.661  0.216  0.000  0.003
  0.168  0.005  0.161  0.651  0.014
  0.094  0.107  0.056  0.014  0.730
  0.282  0.222  0.243  0.003  0.249
  0.337  0.005  0.323  0.332  0.003
    occupations:
  0.999  0.000 -0.000  0.000  0.000
  0.000  0.999 -0.000 -0.000 -0.001
 -0.000 -0.000  1.000 -0.000 -0.000
  0.000 -0.000 -0.000  0.999 -0.000
  0.000 -0.001 -0.000 -0.000  0.999
atom  190   Tr[ns(na)] =   9.99150
    eigenvalues:
  0.999  0.999  0.999  1.000  1.000
    eigenvectors:
  0.007  0.107  0.886  0.000  0.000
  0.035  0.302  0.032  0.461  0.169
  0.313  0.032  0.012  0.162  0.481
  0.575  0.048  0.020  0.098  0.259
  0.070  0.511  0.049  0.279  0.091
    occupations:
  0.999  0.000  0.000 -0.000 -0.000
  0.000  0.999 -0.000 -0.000  0.001
  0.000 -0.000  0.999  0.001 -0.000
 -0.000 -0.000  0.001  0.999  0.000
 -0.000  0.001 -0.000  0.000  0.999
atom  191   Tr[ns(na)] =   5.75603
    eigenvalues:
  0.959  0.959  0.960
    eigenvectors:
  0.558  0.142  0.300
  0.369  0.522  0.110
  0.074  0.337  0.590
    occupations:
  0.959 -0.000 -0.000
 -0.000  0.959  0.000
 -0.000  0.000  0.960
atom  192   Tr[ns(na)] =   5.77482
    eigenvalues:
  0.961  0.962  0.964
    eigenvectors:
  0.011  0.867  0.122
  0.245  0.065  0.689
  0.743  0.068  0.188
    occupations:
  0.962  0.001  0.000
  0.001  0.963  0.001
  0.000  0.001  0.962
atom  193   Tr[ns(na)] =   9.99153
    eigenvalues:
  0.999  0.999  0.999  1.000  1.000
    eigenvectors:
  0.019  0.446  0.534  0.000  0.000
  0.313  0.017  0.000  0.011  0.659
  0.013  0.177  0.154  0.643  0.014
  0.019  0.326  0.311  0.338  0.005
  0.637  0.034  0.001  0.007  0.322
    occupations:
  0.999 -0.000  0.000  0.000  0.000
 -0.000  0.999 -0.000 -0.000 -0.001
  0.000 -0.000  0.999 -0.000 -0.000
  0.000 -0.000 -0.000  0.999 -0.000
  0.000 -0.001 -0.000 -0.000  0.999
atom  194   Tr[ns(na)] =   9.99131
    eigenvalues:
  0.999  0.999  0.999  1.000  1.000
    eigenvectors:
  0.036  0.047  0.917  0.000  0.000
  0.008  0.307  0.011  0.385  0.288
  0.331  0.004  0.018  0.279  0.367
  0.609  0.009  0.029  0.150  0.203
  0.016  0.634  0.024  0.185  0.141
    occupations:
  0.999  0.000  0.000 -0.000 -0.000
  0.000  0.999  0.000 -0.000  0.001
  0.000  0.000  0.999  0.001 -0.000
 -0.000 -0.000  0.001  0.999  0.000
 -0.000  0.001 -0.000  0.000  0.999
atom  195   Tr[ns(na)] =   5.75528
    eigenvalues:
  0.958  0.959  0.960
    eigenvectors:
  0.237  0.015  0.748
  0.000  0.983  0.017
  0.762  0.002  0.235
    occupations:
  0.960  0.000 -0.001
  0.000  0.960 -0.000
 -0.001 -0.000  0.958
atom  196   Tr[ns(na)] =   5.75519
    eigenvalues:
  0.958  0.959  0.960
    eigenvectors:
  0.258  0.005  0.737
  0.539  0.309  0.152
  0.203  0.686  0.111
    occupations:
  0.960 -0.001 -0.000
 -0.001  0.959 -0.000
 -0.000 -0.000  0.959
atom  197   Tr[ns(na)] =   9.99166
    eigenvalues:
  0.999  0.999  0.999  1.000  1.000
    eigenvectors:
  0.079  0.685  0.231  0.000  0.004
  0.240  0.043  0.000  0.125  0.592
  0.027  0.068  0.211  0.547  0.147
  0.033  0.115  0.546  0.268  0.038
  0.621  0.089  0.011  0.060  0.219
    occupations:
  0.999 -0.000  0.000  0.000  0.000
 -0.000  0.999 -0.000 -0.000 -0.001
  0.000 -0.000  1.000 -0.000 -0.000
  0.000 -0.000 -0.000  0.999 -0.000
  0.000 -0.001 -0.000 -0.000  0.999
atom  198   Tr[ns(na)] =   9.99143
    eigenvalues:
  0.999  0.999  0.999  1.000  1.000
    eigenvectors:
  0.142  0.649  0.209  0.001  0.000
  0.003  0.089  0.189  0.710  0.009
  0.261  0.021  0.031  0.010  0.676
  0.580  0.043  0.064  0.003  0.310
  0.015  0.198  0.507  0.276  0.004
    occupations:
  0.999  0.000  0.000 -0.000 -0.000
  0.000  0.999  0.000 -0.000  0.000
  0.000  0.000  0.999  0.001 -0.000
 -0.000 -0.000  0.001  0.999  0.000
 -0.000  0.000 -0.000  0.000  0.999
atom  199   Tr[ns(na)] =   5.75557
    eigenvalues:
  0.958  0.959  0.960
    eigenvectors:
  0.145  0.810  0.045
  0.084  0.010  0.906
  0.771  0.180  0.049
    occupations:
  0.959 -0.000 -0.000
 -0.000  0.960 -0.000
 -0.000 -0.000  0.959
atom  200   Tr[ns(na)] =   5.75541
    eigenvalues:
  0.958  0.959  0.961
    eigenvectors:
  0.030  0.030  0.940
  0.438  0.562  0.000
  0.531  0.409  0.060
    occupations:
  0.960 -0.000 -0.000
 -0.000  0.959 -0.000
 -0.000 -0.000  0.959
N of occupied +U levels = 1525.103038
 --- exit write_ns ---

          k = 0.0000 0.0000 0.0000 ( 15451 PWs)   bands (ev):

   -10.6685 -10.4693 -10.4477 -10.4416 -10.2755 -10.0379 -10.0040 -10.0004
    -9.8969  -9.8769  -9.8486  -9.8322  -9.7831  -9.7626  -9.7395  -9.6946
    -9.6840  -9.6681  -9.6640  -9.6504  -9.6208  -9.6184  -9.6063  -9.5958
    -9.5891  -9.5640  -9.5592  -9.5457  -9.5251  -9.5121  -9.5061  -9.4988
    -9.4887  -9.4690  -9.4631  -9.4475  -9.4330  -9.4184  -9.4091  -9.3923
    -9.3870  -9.3612  -9.3607  -9.3511  -9.3309  -9.3257  -9.3224  -9.3170
    -9.3069  -9.3011  -9.2979  -9.2857  -9.2827  -9.2711  -9.2554  -9.2505
    -9.2457  -9.2447  -9.2435  -9.2355  -9.2333  -9.2258  -9.2177  -9.2075
    -9.2038  -9.1970  -9.1960  -9.1862  -9.1807  -9.1707  -9.1686  -9.1600
    -9.1548  -9.1534  -9.1513  -9.1503  -9.1419  -9.1418  -9.1349  -9.1232
    -9.1193  -9.1142  -9.1027  -9.1010  -9.0867  -9.0861  -9.0821  -9.0760
    -9.0689  -9.0582  -9.0562  -9.0547  -9.0473  -9.0319  -9.0313  -9.0046
    -8.9998  -8.9833  -8.9671  -8.9523  -3.2889  -3.1128  -3.1096  -3.0763
    -3.0274  -3.0108  -2.9896  -2.9414  -2.9362  -2.8928  -2.8679  -2.8625
    -2.8432  -2.8147  -2.8028  -2.7946  -2.7806  -2.7675  -2.7633  -2.7279
    -2.7221  -2.7082  -2.6935  -2.6933  -2.6760  -2.6699  -2.6516  -2.6379
    -2.6334  -2.6327  -2.6261  -2.6178  -2.6108  -2.6003  -2.5911  -2.5897
    -2.5851  -2.5769  -2.5718  -2.5589  -2.5481  -2.5437  -2.5335  -2.5319
    -2.5140  -2.5108  -2.5002  -2.4973  -2.4875  -2.4778  -2.4744  -2.4680
    -2.4678  -2.4666  -2.4531  -2.4503  -2.4420  -2.4386  -2.4369  -2.4271
    -2.4165  -2.4158  -2.4129  -2.4125  -2.4041  -2.4015  -2.3938  -2.3937
    -2.3847  -2.3792  -2.3767  -2.3709  -2.3659  -2.3653  -2.3554  -2.3494
    -2.3445  -2.3434  -2.3340  -2.3193  -2.3124  -2.3073  -2.2973  -2.2925
    -2.2894  -2.2877  -2.2795  -2.2789  -2.2558  -2.2501  -2.2472  -2.2388
    -2.2377  -2.2255  -2.2191  -2.2116  -2.2072  -2.1913  -2.1837  -2.1809
    -2.1669  -2.1635  -2.1613  -2.1534  -2.1479  -2.1461  -2.1447  -2.1375
    -2.1351  -2.1344  -2.1247  -2.1123  -2.1077  -2.1063  -2.0952  -2.0888
    -2.0877  -2.0776  -2.0764  -2.0740  -2.0668  -2.0631  -2.0626  -2.0496
    -2.0438  -2.0379  -2.0290  -2.0268  -2.0228  -2.0157  -2.0122  -2.0084
    -2.0024  -2.0005  -1.9961  -1.9839  -1.9806  -1.9778  -1.9707  -1.9689
    -1.9678  -1.9644  -1.9615  -1.9547  -1.9476  -1.9447  -1.9427  -1.9359
    -1.9325  -1.9277  -1.9203  -1.9094  -1.9070  -1.9034  -1.9029  -1.8999
    -1.8986  -1.8922  -1.8881  -1.8859  -1.8773  -1.8723  -1.8669  -1.8663
    -1.8629  -1.8588  -1.8543  -1.8535  -1.8439  -1.8420  -1.8377  -1.8343
    -1.8245  -1.8163  -1.8130  -1.8039  -1.7970  -1.7905  -1.7891  -1.7849
    -1.7775  -1.7692  -1.7671  -1.7594  -1.7574  -1.7499  -1.7474  -1.7469
    -1.7381  -1.7354  -1.7277  -1.7247  -1.7203  -1.7113  -1.7103  -1.7081
    -1.7056  -1.7011  -1.6899  -1.6894  -1.6861  -1.6762  -1.6739  -1.6717
    -1.6620  -1.6568  -1.6496  -1.6495  -1.6309  -1.6305  -1.6235  -1.6217
    -1.6183  -1.6116  -1.6107  -1.5994  -1.5981  -1.5966  -1.5863  -1.5762
    -1.5756  -1.5750  -1.5693  -1.5655  -1.5504  -1.5503  -1.5470  -1.5424
    -1.5412  -1.5372  -1.5334  -1.5293  -1.5247  -1.5183  -1.5072  -1.5070
    -1.5030  -1.4846  -1.4824  -1.4778  -1.4711  -1.4669  -1.4447  -1.4416
    -1.4365  -1.4324  -1.4235  -1.4134  -1.4105  -1.4061  -1.3987  -1.3904
    -1.3888  -1.3865  -1.3787  -1.3769  -1.3638  -1.3588  -1.3582  -1.3498
    -1.3486  -1.3415  -1.3320  -1.3211  -1.3207  -1.3185  -1.3171  -1.2999
    -1.2996  -1.2988  -1.2884  -1.2824  -1.2824  -1.2778  -1.2745  -1.2700
    -1.2648  -1.2563  -1.2520  -1.2487  -1.2478  -1.2415  -1.2404  -1.2258
    -1.2203  -1.2153  -1.2072  -1.2046  -1.1962  -1.1810  -1.1793  -1.1765
    -1.1728  -1.1685  -1.1588  -1.1533  -1.1501  -1.1445  -1.1415  -1.1301
    -1.1286  -1.1193  -1.1191  -1.1125  -1.1096  -1.1010  -1.0938  -1.0929
    -1.0892  -1.0782  -1.0695  -1.0661  -1.0576  -1.0527  -1.0519  -1.0341
    -1.0317  -1.0284  -1.0160  -1.0145  -1.0049  -1.0036  -0.9899  -0.9863
    -0.9783  -0.9741  -0.9736  -0.9710  -0.9697  -0.9593  -0.9577  -0.9535
    -0.9510  -0.9430  -0.9402  -0.9324  -0.9314  -0.9221  -0.9214  -0.9130
    -0.9123  -0.9067  -0.8981  -0.8968  -0.8915  -0.8825  -0.8743  -0.8682
    -0.8655  -0.8649  -0.8573  -0.8507  -0.8477  -0.8367  -0.8342  -0.8320
    -0.8239  -0.8222  -0.8171  -0.8118  -0.8047  -0.7996  -0.7937  -0.7879
    -0.7870  -0.7750  -0.7709  -0.7672  -0.7665  -0.7645  -0.7583  -0.7528
    -0.7509  -0.7483  -0.7448  -0.7419  -0.7368  -0.7342  -0.7300  -0.7263
[...]
    22.7126  22.7279  22.7298  22.7521  22.7576  22.7602  22.7879  22.7987
    22.8267  22.8392  22.8458  22.8466  22.8673  22.8674  22.8845  22.8957
    22.9133  22.9146  22.9404  22.9483  22.9662  22.9692  22.9745  22.9837
    22.9918  23.0073  23.0209  23.0349  23.0433  23.0545  23.0624  23.0654
    23.0679  23.0774  23.0873  23.1301  23.1538  23.1544  23.1793  23.2093
    23.2427  23.2429  23.3912  23.4165  23.4918  23.4922  23.5441  23.6046
    23.6054  23.6374  23.6961  23.7108  23.7376  23.7419  23.7846  23.8097
    23.8205  23.8478  23.8644  23.8659  23.8859  23.9103  23.9159  23.9629
    23.9822  24.0295  24.0771  24.0859  24.1233  24.2155  24.2631  24.3031
    24.3462  24.3594  24.4272  24.5432  24.5583  24.6266  24.7573  24.7663
    24.7891  24.8211  24.9488  24.9643  24.9761  25.0607  25.0702  25.1845
    25.2145  25.2234  25.2459  25.2465  25.2609  25.3049  25.3174  25.3386
    25.3470  25.3647  25.3910  25.4262  25.4296  25.4587  25.4987  25.5220
    25.5521  25.5691  25.5851  25.5932  25.6519  25.6673  25.6749  25.7228
    25.7488  25.8065  25.8228  25.8364  25.8860  25.9165  25.9362  25.9712

     highest occupied, lowest unoccupied level (ev):     6.2752    9.8064

!    total energy              =  -15237.90529925 Ry
     Harris-Foulkes estimate   =  -15237.90529945 Ry
     estimated scf accuracy    <       0.00000033 Ry

     The total energy is the sum of the following terms:

     one-electron contribution =   -7750.01694484 Ry
     hartree contribution      =    5707.16850912 Ry
     xc contribution           =   -2496.06226968 Ry
     ewald contribution        =  -10705.25321163 Ry
     Hubbard energy            =       6.25861777 Ry

     convergence has been achieved in   9 iterations

     Writing output data file espresso.save

     General routines

     Parallel routines

     Hubbard U routines

   This run was terminated on:  20:27:49  13Jan2023

   JOB DONE.