     Program PWSCF v.6.1 starts on 12Jan2023 at  6:31:40

     Current dimensions of program PWSCF are:
     Max number of different atomic species (ntypx) = 10
     Max number of k-points (npk) =  40000
     Max angular momentum in pseudopotentials (lmaxx) =  3
               file O.pbe-rrkjus.UPF: wavefunction(s)  2S renormalized

     gamma-point specific algorithms are used

     Subspace diagonalization in iterative solution of the eigenvalue problem:
     a serial algorithm will be used

     Title:
     zno_al3_crystal_opted(SCF)

     bravais-lattice index     =            0
     lattice parameter (alat)  =      29.8177  a.u.
     unit-cell volume          =   14728.6916 (a.u.)^3
     number of atoms/cell      =          200
     number of atomic types    =            3
     number of electrons       =      1770.00
     number of Kohn-Sham states=         1320
     kinetic-energy cutoff     =      25.0000  Ry
     charge density cutoff     =     225.0000  Ry
     convergence threshold     =      1.0E-06
     mixing beta               =       0.7000
     number of iterations used =            8  plain     mixing
     Exchange-correlation      =  SLA  PW   PBE  PBE ( 1  4  3  4 0 0)

     celldm(1)=  29.817694  celldm(2)=   0.000000  celldm(3)=   0.000000
     celldm(4)=   0.000000  celldm(5)=   0.000000  celldm(6)=   0.000000

     crystal axes: (cart. coord. in units of alat)
               a(1) = (   1.000000   0.000009  -0.000028 )
               a(2) = (  -0.499993   0.866030   0.000028 )
               a(3) = (  -0.000018   0.000010   0.641515 )

     reciprocal axes: (cart. coord. in units 2 pi/alat)
               b(1) = (  0.999995  0.577336  0.000019 )
               b(2) = ( -0.000010  1.154689 -0.000019 )
               b(3) = (  0.000043 -0.000025  1.558809 )

     PseudoPot. # 1 for Zn read from file:
     C:\Users\Dimas\.burai\.pseudopot/Zn.pbe-van.UPF
     MD5 check sum: 8a117cd81793830d6ad9bd6443d05479
     Pseudo is Ultrasoft, Zval = 12.0
     Generated by new atomic code, or converted to UPF format
     Using radial grid of  869 points,  6 beta functions with:
                l(1) =   0
                l(2) =   0
                l(3) =   1
                l(4) =   1
                l(5) =   2
                l(6) =   2
     Q(r) pseudized with  8 coefficients,  rinner =    0.800   0.800   0.800
                                                       0.800   0.800

     PseudoPot. # 2 for O  read from file:
     C:\Users\Dimas\.burai\.pseudopot/O.pbe-rrkjus.UPF
     MD5 check sum: 390ba29e75625707450f3bd3f0eb6be9
     Pseudo is Ultrasoft, Zval =  6.0
     Generated by new atomic code, or converted to UPF format
     Using radial grid of 1269 points,  4 beta functions with:
                l(1) =   0
                l(2) =   0
                l(3) =   1
                l(4) =   1
     Q(r) pseudized with 0 coefficients

     PseudoPot. # 3 for Al read from file:
     C:\Users\Dimas\.burai\.pseudopot/Al.pbe-rrkj.UPF
     MD5 check sum: b5320f8fdc07ab0d74f109f4aa58256b
     Pseudo is Norm-conserving, Zval =  3.0
     Generated by new atomic code, or converted to UPF format
     Using radial grid of  879 points,  4 beta functions with:
                l(1) =   0
                l(2) =   0
                l(3) =   1
                l(4) =   1

     atomic species   valence    mass     pseudopotential
        Zn            12.00    65.39000     Zn( 1.00)
        O              6.00    15.99940     O ( 1.00)
        Al             3.00    26.98154     Al( 1.00)

     Simplified LDA+U calculation (l_max = 2) with parameters (eV):
     atomic species    L          U    alpha       J0     beta
        Zn             2    10.5000   0.0000   0.0000   0.0000
        O              1     7.0000   0.0000   0.0000   0.0000

      2 Sym. Ops. (no inversion) found

   Cartesian axes

     site n.     atom                  positions (alat units)
         1           Zn  tau(   1) = (   0.0997946   0.0580684   0.1595379  )
         2           Zn  tau(   2) = (   0.0001546   0.1152630   0.6406345  )
         3           O   tau(   3) = (   0.1005726   0.0577941   0.2820346  )
         4           O   tau(   4) = (  -0.0003529   0.1159215   0.1215633  )
         5           Zn  tau(   5) = (   0.1005641   0.0579532   0.4799928  )
         6           Zn  tau(   6) = (   0.0000481   0.1154891   0.3198216  )
         7           O   tau(   7) = (   0.1006077   0.0580608   0.6023599  )
         8           O   tau(   8) = (   0.0004817   0.1158704   0.4421894  )
         9           Zn  tau(   9) = (  -0.0006315   0.2311020   0.1595300  )
        10           Zn  tau(  10) = (  -0.0995484   0.2887625   0.6404829  )
        11           O   tau(  11) = (  -0.0004929   0.2318107   0.2819696  )
        12           O   tau(  12) = (  -0.1017444   0.2890460   0.1216151  )
        13           Zn  tau(  13) = (   0.0003081   0.2311254   0.4801715  )
        14           Zn  tau(  14) = (  -0.1006300   0.2886734   0.3204610  )
        15           O   tau(  15) = (   0.0003357   0.2313352   0.6026253  )
        16           O   tau(  16) = (  -0.1003199   0.2894019   0.4427737  )
        17           Zn  tau(  17) = (  -0.0995050   0.4038334   0.1600622  )
        18           Zn  tau(  18) = (  -0.1995774   0.4621962   0.6414007  )
        19           O   tau(  19) = (  -0.1003994   0.4052349   0.2824332  )
        20           O   tau(  20) = (  -0.2007355   0.4609555   0.1228786  )
        21           Zn  tau(  21) = (  -0.0993729   0.4044136   0.4811740  )
        22           Zn  tau(  22) = (  -0.2003660   0.4616325   0.3209144  )
        23           O   tau(  23) = (  -0.0994398   0.4050071   0.6034090  )
        24           O   tau(  24) = (  -0.1999119   0.4625221   0.4427632  )
        25           Zn  tau(  25) = (  -0.2002500   0.5764063   0.1599818  )
        26           Zn  tau(  26) = (  -0.2999236   0.6351970   0.0004522  )
        27           O   tau(  27) = (  -0.1918835   0.5815231   0.2853415  )
        28           O   tau(  28) = (  -0.2993075   0.6340688   0.1231272  )
        29           Zn  tau(  29) = (  -0.1998440   0.5775009   0.4818006  )
        30           Zn  tau(  30) = (  -0.2999045   0.6354897   0.3203586  )
        31           O   tau(  31) = (  -0.1990284   0.5778458   0.6030502  )
        32           O   tau(  32) = (  -0.2987254   0.6348898   0.4422041  )
        33           Zn  tau(  33) = (  -0.3003320   0.7507562   0.1593382  )
        34           Zn  tau(  34) = (  -0.4003559   0.8085051   0.6406606  )
        35           O   tau(  35) = (  -0.2989329   0.7499485   0.2817746  )
        36           O   tau(  36) = (  -0.3999860   0.8082915   0.1216285  )
        37           Zn  tau(  37) = (  -0.3002465   0.7507068   0.4814995  )
        38           Zn  tau(  38) = (  -0.3997905   0.8081786   0.3198927  )
        39           O   tau(  39) = (  -0.2995134   0.7502836   0.6036254  )
        40           O   tau(  40) = (  -0.3995749   0.8080541   0.4423137  )
        41           Zn  tau(  41) = (   0.3003196   0.0583195   0.1593912  )
        42           Zn  tau(  42) = (   0.1997761   0.1158527   0.6412474  )
        43           O   tau(  43) = (   0.3016036   0.0565089   0.2819988  )
        44           O   tau(  44) = (   0.2006941   0.1164567   0.1221864  )
        45           Zn  tau(  45) = (   0.2998226   0.0566325   0.4813318  )
        46           Zn  tau(  46) = (   0.2005546   0.1146810   0.3196185  )
        47           O   tau(  47) = (   0.3002122   0.0575854   0.6034962  )
        48           O   tau(  48) = (   0.2016877   0.1166827   0.4421473  )
        49           Zn  tau(  49) = (   0.2006010   0.2314528   0.1604873  )
        50           Zn  tau(  50) = (   0.0997485   0.2884387   0.0002399  )
        51           O   tau(  51) = (   0.2011781   0.2314902   0.2832695  )
        52           O   tau(  52) = (   0.1004686   0.2890512   0.1226474  )
        53           Zn  tau(  53) = (   0.1994131   0.2308742   0.4807613  )
        54           Zn  tau(  54) = (   0.0996001   0.2887443   0.3195490  )
        55           O   tau(  55) = (   0.2007497   0.2321129   0.6026807  )
        56           O   tau(  56) = (   0.1009797   0.2899899   0.4420059  )
        57           Zn  tau(  57) = (   0.1006525   0.4040300   0.1606218  )
        58           Zn  tau(  58) = (   0.0006424   0.4619365   0.0004661  )
        59           O   tau(  59) = (   0.0998831   0.4061139   0.2834053  )
        60           O   tau(  60) = (   0.0006030   0.4623403   0.1232015  )
[...]
       186           Zn  tau( 186) = (   0.4995646   0.6351016   0.6412474  )
       187           O   tau( 187) = (   0.6018716   0.5765883   0.2819988  )
       188           O   tau( 188) = (   0.4995005   0.6340046   0.1221864  )
       189           Zn  tau( 189) = (   0.6008740   0.5780689   0.4813318  )
       190           Zn  tau( 190) = (   0.5009685   0.6350133   0.3196185  )
       191           O   tau( 191) = (   0.6002436   0.5772551   0.6034962  )
       192           O   tau( 192) = (   0.4998016   0.6330312   0.4421473  )
       193           Zn  tau( 193) = (   0.4996165   0.7505803   0.1595379  )
       194           Zn  tau( 194) = (   0.4002646   0.8082738   0.6406345  )
       195           O   tau( 195) = (   0.5002431   0.7500436   0.2820346  )
       196           O   tau( 196) = (   0.3994405   0.8083840   0.1215633  )
       197           Zn  tau( 197) = (   0.5001010   0.7499715   0.4799928  )
       198           Zn  tau( 198) = (   0.4000155   0.8082530   0.3198216  )
       199           O   tau( 199) = (   0.5000296   0.7498799   0.6023599  )
       200           O   tau( 200) = (   0.3999021   0.8076868   0.4421894  )

     number of k points=     1
                       cart. coord. in units 2pi/alat
        k(    1) = (   0.0000000   0.0000000   0.0000000), wk =   2.0000000

     Initial potential from superposition of free atoms

     starting charge 1772.97748, renormalised to 1770.00000
     Number of +U iterations with fixed ns =  0
     Starting occupations:
 --- enter write_ns ---
 LDA+U parameters:
U( 1)     = 10.50000000
alpha( 1) =  0.00000000
U( 2)     =  7.00000000
alpha( 2) =  0.00000000
atom    1   Tr[ns(na)] =  10.00000
    eigenvalues:
  1.000  1.000  1.000  1.000  1.000
    eigenvectors:
  1.000  0.000  0.000  0.000  0.000
  0.000  1.000  0.000  0.000  0.000
  0.000  0.000  1.000  0.000  0.000
  0.000  0.000  0.000  1.000  0.000
  0.000  0.000  0.000  0.000  1.000
    occupations:
  1.000  0.000  0.000  0.000  0.000
  0.000  1.000  0.000  0.000  0.000
  0.000  0.000  1.000  0.000  0.000
  0.000  0.000  0.000  1.000  0.000
  0.000  0.000  0.000  0.000  1.000
atom    2   Tr[ns(na)] =  10.00000
    eigenvalues:
  1.000  1.000  1.000  1.000  1.000
    eigenvectors:
  1.000  0.000  0.000  0.000  0.000
  0.000  1.000  0.000  0.000  0.000
  0.000  0.000  1.000  0.000  0.000
  0.000  0.000  0.000  1.000  0.000
  0.000  0.000  0.000  0.000  1.000
    occupations:
  1.000  0.000  0.000  0.000  0.000
  0.000  1.000  0.000  0.000  0.000
  0.000  0.000  1.000  0.000  0.000
[...]
  0.817  0.003  0.180
    occupations:
  0.962  0.001  0.001
  0.001  0.963  0.001
  0.001  0.001  0.961
atom  173   Tr[ns(na)] =   9.99170
    eigenvalues:
  0.999  0.999  0.999  1.000  1.000
    eigenvectors:
  0.031  0.465  0.504  0.000  0.000
  0.036  0.175  0.115  0.596  0.077
  0.265  0.007  0.037  0.077  0.614
  0.587  0.011  0.093  0.037  0.272
  0.081  0.341  0.252  0.289  0.037
    occupations:
  0.999  0.000 -0.000 -0.000  0.000
  0.000  0.999 -0.000 -0.000 -0.000
 -0.000 -0.000  0.999 -0.001 -0.000
 -0.000 -0.000 -0.001  0.999 -0.000
  0.000 -0.000 -0.000 -0.000  0.999
atom  174   Tr[ns(na)] =   9.99174
    eigenvalues:
  0.999  0.999  0.999  1.000  1.000
    eigenvectors:
  0.483  0.415  0.101  0.000  0.001
  0.128  0.014  0.218  0.077  0.563
  0.042  0.167  0.129  0.611  0.052
  0.122  0.342  0.198  0.290  0.047
  0.225  0.062  0.354  0.022  0.337
    occupations:
  0.999  0.000  0.000 -0.000 -0.000
  0.000  0.999  0.000 -0.000  0.000
  0.000  0.000  0.999  0.000 -0.000
 -0.000 -0.000  0.000  0.999  0.000
 -0.000  0.000 -0.000  0.000  0.999
atom  175   Tr[ns(na)] =   5.75423
    eigenvalues:
  0.958  0.960  0.960
    eigenvectors:
  0.199  0.087  0.713
  0.575  0.391  0.033
  0.225  0.521  0.254
    occupations:
  0.959 -0.001  0.001
 -0.001  0.959  0.001
  0.001  0.001  0.959
atom  176   Tr[ns(na)] =   5.75283
    eigenvalues:
  0.958  0.959  0.960
    eigenvectors:
  0.855  0.142  0.003
  0.093  0.422  0.485
  0.052  0.435  0.513
    occupations:
  0.958  0.000  0.000
  0.000  0.959 -0.000
  0.000 -0.000  0.959
atom  177   Tr[ns(na)] =   9.99164
    eigenvalues:
  0.999  0.999  0.999  1.000  1.000
    eigenvectors:
  0.089  0.598  0.308  0.000  0.005
  0.226  0.044  0.001  0.421  0.309
  0.025  0.093  0.177  0.278  0.427
  0.038  0.159  0.511  0.140  0.153
  0.622  0.106  0.004  0.161  0.107
    occupations:
  0.999 -0.000  0.000  0.000  0.000
 -0.000  0.999 -0.000 -0.000 -0.001
  0.000 -0.000  1.000 -0.000 -0.000
  0.000 -0.000 -0.000  0.999 -0.000
  0.000 -0.001 -0.000 -0.000  0.999
atom  178   Tr[ns(na)] =   9.99146
    eigenvalues:
  0.999  0.999  0.999  1.000  1.000
    eigenvectors:
  0.086  0.483  0.431  0.000  0.000
  0.008  0.160  0.134  0.611  0.087
  0.264  0.001  0.036  0.080  0.618
  0.616  0.005  0.077  0.040  0.262
  0.025  0.351  0.322  0.269  0.033
    occupations:
  0.999  0.000  0.000 -0.000 -0.000
  0.000  0.999 -0.000 -0.000  0.000
  0.000 -0.000  0.999  0.001 -0.000
 -0.000 -0.000  0.001  0.999  0.000
 -0.000  0.000 -0.000  0.000  0.999
atom  179   Tr[ns(na)] =   5.75380
    eigenvalues:
  0.957  0.959  0.960
    eigenvectors:
  0.028  0.810  0.162
  0.346  0.175  0.479
  0.626  0.015  0.359
    occupations:
  0.960  0.000  0.000
  0.000  0.959 -0.001
  0.000 -0.001  0.958
atom  180   Tr[ns(na)] =   5.75457
    eigenvalues:
  0.958  0.959  0.960
    eigenvectors:
  0.020  0.081  0.899
  0.920  0.077  0.004
  0.060  0.842  0.098
    occupations:
  0.960 -0.000 -0.000
 -0.000  0.958 -0.000
 -0.000 -0.000  0.959
atom  181   Tr[ns(na)] =   9.99175
    eigenvalues:
  0.999  0.999  0.999  1.000  1.000
    eigenvectors:
  0.006  0.025  0.969  0.000  0.000
  0.107  0.206  0.011  0.069  0.607
  0.218  0.099  0.000  0.607  0.075
  0.465  0.216  0.001  0.290  0.028
  0.203  0.454  0.019  0.034  0.290
    occupations:
  0.999 -0.000 -0.000  0.000  0.000
 -0.000  0.999 -0.000 -0.000 -0.000
 -0.000 -0.000  0.999 -0.000 -0.000
  0.000 -0.000 -0.000  0.999 -0.000
  0.000 -0.000 -0.000 -0.000  0.999
atom  182   Tr[ns(na)] =   9.99133
    eigenvalues:
  0.999  0.999  0.999  1.000  1.000
    eigenvectors:
  0.025  0.001  0.974  0.000  0.000
  0.019  0.306  0.002  0.508  0.165
  0.292  0.025  0.005  0.158  0.520
  0.613  0.048  0.017  0.084  0.238
  0.051  0.620  0.003  0.250  0.076
    occupations:
  0.999 -0.000  0.000 -0.000  0.000
 -0.000  0.999 -0.000 -0.000  0.000
  0.000 -0.000  0.999  0.001 -0.000
 -0.000 -0.000  0.001  0.999  0.000
  0.000  0.000 -0.000  0.000  0.999
atom  183   Tr[ns(na)] =   5.75365
    eigenvalues:
  0.958  0.959  0.960
    eigenvectors:
  0.350  0.031  0.619
  0.006  0.922  0.073
  0.644  0.048  0.308
    occupations:
  0.959  0.000 -0.001
  0.000  0.959 -0.000
 -0.001 -0.000  0.959
atom  184   Tr[ns(na)] =   5.75313
    eigenvalues:
  0.957  0.959  0.960
    eigenvectors:
  0.023  0.873  0.104
  0.901  0.052  0.046
  0.076  0.075  0.849
    occupations:
  0.959 -0.000 -0.000
 -0.000  0.957 -0.001
 -0.000 -0.001  0.960
atom  185   Tr[ns(na)] =   9.99151
    eigenvalues:
  0.999  0.999  0.999  1.000  1.000
    eigenvectors:
  0.020  0.350  0.630  0.000  0.000
  0.268  0.024  0.000  0.619  0.089
  0.018  0.173  0.110  0.089  0.610
  0.040  0.399  0.259  0.038  0.263
  0.653  0.054  0.001  0.254  0.038
    occupations:
  0.999  0.000  0.000  0.000 -0.000
  0.000  0.999  0.000  0.000 -0.001
  0.000  0.000  0.999 -0.000  0.000
  0.000  0.000 -0.000  0.999  0.000
 -0.000 -0.001  0.000  0.000  0.999
atom  186   Tr[ns(na)] =   9.99158
    eigenvalues:
  0.999  0.999  0.999  1.000  1.000
    eigenvectors:
  0.066  0.293  0.641  0.000  0.000
  0.004  0.230  0.087  0.631  0.049
  0.292  0.000  0.026  0.043  0.639
  0.625  0.001  0.055  0.024  0.294
  0.013  0.476  0.191  0.302  0.018
    occupations:
  0.999  0.000  0.000 -0.000 -0.000
  0.000  0.999 -0.000 -0.000  0.000
  0.000 -0.000  0.999  0.001 -0.000
 -0.000 -0.000  0.001  0.999  0.000
 -0.000  0.000 -0.000  0.000  0.999
atom  187   Tr[ns(na)] =   5.75391
    eigenvalues:
  0.958  0.959  0.960
    eigenvectors:
  0.027  0.049  0.924
  0.886  0.066  0.048
  0.087  0.885  0.028
    occupations:
  0.960  0.000 -0.000
  0.000  0.958 -0.000
 -0.000 -0.000  0.959
atom  188   Tr[ns(na)] =   5.75358
    eigenvalues:
  0.958  0.959  0.960
    eigenvectors:
  0.000  0.143  0.857
  0.987  0.012  0.000
  0.012  0.845  0.143
    occupations:
  0.960  0.000 -0.000
  0.000  0.959 -0.000
 -0.000 -0.000  0.959
atom  189   Tr[ns(na)] =   9.99151
    eigenvalues:
  0.999  0.999  0.999  1.000  1.000
    eigenvectors:
  0.040  0.165  0.795  0.001  0.000
  0.240  0.092  0.003  0.421  0.244
  0.062  0.172  0.065  0.239  0.463
  0.175  0.390  0.137  0.113  0.185
  0.484  0.181  0.000  0.226  0.108
    occupations:
  0.999 -0.000  0.000  0.000  0.000
 -0.000  0.999 -0.000  0.000 -0.001
  0.000 -0.000  0.999 -0.000  0.000
  0.000  0.000 -0.000  0.999  0.000
  0.000 -0.001  0.000  0.000  0.999
atom  190   Tr[ns(na)] =   9.99161
    eigenvalues:
  0.999  0.999  0.999  1.000  1.000
    eigenvectors:
  0.082  0.247  0.671  0.000  0.000
  0.003  0.229  0.069  0.291  0.408
  0.269  0.000  0.028  0.418  0.284
  0.636  0.002  0.064  0.171  0.127
  0.010  0.522  0.168  0.119  0.181
    occupations:
  0.999 -0.000  0.000 -0.000  0.000
 -0.000  0.999  0.000  0.000  0.000
  0.000  0.000  0.999  0.001  0.000
 -0.000  0.000  0.001  0.999 -0.000
  0.000  0.000  0.000 -0.000  0.999
atom  191   Tr[ns(na)] =   5.75412
    eigenvalues:
  0.958  0.959  0.959
    eigenvectors:
  0.066  0.072  0.861
  0.265  0.724  0.011
  0.668  0.204  0.128
    occupations:
  0.959 -0.000 -0.000
 -0.000  0.959 -0.000
 -0.000 -0.000  0.959
atom  192   Tr[ns(na)] =   5.75296
    eigenvalues:
  0.957  0.959  0.960
    eigenvectors:
  0.027  0.006  0.967
  0.656  0.336  0.008
  0.317  0.659  0.024
    occupations:
  0.960 -0.000 -0.000
 -0.000  0.958 -0.001
 -0.000 -0.001  0.959
atom  193   Tr[ns(na)] =   9.99166
    eigenvalues:
  0.999  0.999  0.999  1.000  1.000
    eigenvectors:
  0.003  0.230  0.767  0.000  0.000
  0.302  0.004  0.000  0.004  0.690
  0.003  0.236  0.069  0.688  0.004
  0.006  0.522  0.164  0.306  0.002
  0.686  0.008  0.000  0.002  0.304
    occupations:
  0.999  0.000  0.000  0.000 -0.000
  0.000  0.999  0.000  0.000 -0.001
  0.000  0.000  0.999 -0.000  0.000
  0.000  0.000 -0.000  0.999  0.000
 -0.000 -0.001  0.000  0.000  0.999
atom  194   Tr[ns(na)] =   9.99154
    eigenvalues:
  0.999  0.999  0.999  1.000  1.000
    eigenvectors:
  0.008  0.029  0.963  0.000  0.000
  0.034  0.273  0.006  0.114  0.573
  0.280  0.030  0.006  0.572  0.112
  0.603  0.067  0.014  0.264  0.051
  0.075  0.601  0.011  0.050  0.264
    occupations:
  0.999  0.000  0.000 -0.000 -0.000
  0.000  0.999  0.000 -0.000  0.000
  0.000  0.000  0.999  0.001 -0.000
 -0.000 -0.000  0.001  0.999  0.000
 -0.000  0.000 -0.000  0.000  0.999
atom  195   Tr[ns(na)] =   5.75388
    eigenvalues:
  0.958  0.959  0.960
    eigenvectors:
  0.026  0.014  0.960
  0.094  0.879  0.027
  0.880  0.106  0.013
    occupations:
  0.960  0.000 -0.000
  0.000  0.959  0.000
 -0.000  0.000  0.958
atom  196   Tr[ns(na)] =   5.75379
    eigenvalues:
  0.958  0.959  0.960
    eigenvectors:
  0.015  0.000  0.984
  0.942  0.044  0.014
  0.043  0.956  0.001
    occupations:
  0.960 -0.000  0.000
 -0.000  0.959  0.000
  0.000  0.000  0.959
atom  197   Tr[ns(na)] =   9.99170
    eigenvalues:
  0.999  0.999  0.999  1.000  1.000
    eigenvectors:
  0.006  0.532  0.461  0.000  0.000
  0.290  0.002  0.000  0.485  0.222
  0.001  0.151  0.161  0.218  0.469
  0.003  0.308  0.377  0.100  0.212
  0.700  0.007  0.000  0.196  0.096
    occupations:
  0.999 -0.000  0.000  0.000 -0.000
 -0.000  0.999 -0.000  0.000 -0.001
  0.000 -0.000  0.999 -0.000 -0.000
  0.000  0.000 -0.000  0.999  0.000
 -0.000 -0.001 -0.000  0.000  0.999
atom  198   Tr[ns(na)] =   9.99165
    eigenvalues:
  0.999  0.999  0.999  1.000  1.000
    eigenvectors:
  0.002  0.153  0.845  0.000  0.000
  0.034  0.234  0.039  0.445  0.247
  0.270  0.025  0.008  0.247  0.450
  0.617  0.061  0.019  0.108  0.195
  0.077  0.527  0.088  0.200  0.108
    occupations:
  0.999  0.000  0.000 -0.000 -0.000
  0.000  0.999  0.000 -0.000  0.000
  0.000  0.000  0.999  0.000 -0.000
 -0.000 -0.000  0.000  0.999  0.000
 -0.000  0.000 -0.000  0.000  0.999
atom  199   Tr[ns(na)] =   5.75381
    eigenvalues:
  0.958  0.959  0.959
    eigenvectors:
  0.000  0.098  0.902
  0.101  0.808  0.091
  0.898  0.095  0.007
    occupations:
  0.959 -0.000  0.000
 -0.000  0.959 -0.000
  0.000 -0.000  0.958
atom  200   Tr[ns(na)] =   5.75353
    eigenvalues:
  0.958  0.959  0.960
    eigenvectors:
  0.010  0.000  0.989
  0.188  0.811  0.001
  0.801  0.189  0.010
    occupations:
  0.960 -0.000 -0.000
 -0.000  0.959 -0.000
 -0.000 -0.000  0.958
N of occupied +U levels = 1544.806508
 --- exit write_ns ---

          k = 0.0000 0.0000 0.0000 ( 15553 PWs)   bands (ev):

   -10.5070 -10.4899 -10.4648  -9.8948  -9.8641  -9.8516  -9.8497  -9.8420
    -9.8374  -9.8341  -9.8156  -9.8131  -9.7116  -9.6822  -9.6505  -9.6477
    -9.6244  -9.6111  -9.5966  -9.5925  -9.5733  -9.5687  -9.5576  -9.5567
    -9.5488  -9.5417  -9.5287  -9.5281  -9.5162  -9.5077  -9.5037  -9.5002
    -9.4971  -9.4916  -9.4867  -9.4753  -9.4749  -9.4609  -9.4563  -9.4532
    -9.4412  -9.4355  -9.4333  -9.4188  -9.4166  -9.4146  -9.4116  -9.3982
    -9.3923  -9.3911  -9.3846  -9.3804  -9.3757  -9.3719  -9.3643  -9.3620
    -9.3608  -9.3549  -9.3531  -9.3506  -9.3432  -9.3385  -9.3357  -9.3272
    -9.3239  -9.3185  -9.3153  -9.3102  -9.3053  -9.3043  -9.2953  -9.2892
    -9.2886  -9.2674  -9.2662  -9.2660  -9.2567  -9.2458  -9.2452  -9.2401
    -9.2304  -9.2227  -9.2186  -9.2061  -9.2027  -9.1985  -9.1825  -9.1679
    -9.1582  -9.1403  -9.1342  -9.1215  -9.1176  -9.1120  -9.0783  -9.0695
    -9.0688  -9.0669  -9.0647  -9.0539  -3.1382  -3.0945  -3.0802  -2.9872
    -2.9619  -2.9398  -2.9316  -2.9131  -2.9052  -2.8729  -2.8537  -2.8471
    -2.8445  -2.8424  -2.8368  -2.8090  -2.8060  -2.7969  -2.7886  -2.7804
    -2.7672  -2.7666  -2.7606  -2.7548  -2.7460  -2.7394  -2.7235  -2.7162
    -2.7153  -2.7021  -2.6929  -2.6859  -2.6704  -2.6697  -2.6672  -2.6598
    -2.6483  -2.6481  -2.6404  -2.6394  -2.6332  -2.6311  -2.6277  -2.6203
    -2.6150  -2.6148  -2.6103  -2.6035  -2.6022  -2.5852  -2.5849  -2.5809
    -2.5774  -2.5709  -2.5641  -2.5571  -2.5565  -2.5541  -2.5448  -2.5285
    -2.5096  -2.5027  -2.4964  -2.4950  -2.4841  -2.4810  -2.4732  -2.4708
    -2.4692  -2.4667  -2.4660  -2.4540  -2.4442  -2.4407  -2.4253  -2.4228
    -2.4158  -2.4137  -2.4031  -2.4010  -2.3906  -2.3900  -2.3803  -2.3718
    -2.3627  -2.3549  -2.3542  -2.3399  -2.3238  -2.3187  -2.3151  -2.3060
    -2.2971  -2.2922  -2.2878  -2.2816  -2.2815  -2.2766  -2.2748  -2.2547
    -2.2523  -2.2477  -2.2405  -2.2395  -2.2318  -2.2298  -2.2231  -2.2198
    -2.2176  -2.2155  -2.2041  -2.2014  -2.1968  -2.1909  -2.1882  -2.1836
    -2.1812  -2.1747  -2.1726  -2.1693  -2.1688  -2.1671  -2.1554  -2.1538
    -2.1475  -2.1467  -2.1425  -2.1424  -2.1365  -2.1257  -2.1241  -2.1163
    -2.1141  -2.1115  -2.1060  -2.1006  -2.1000  -2.0955  -2.0948  -2.0888
    -2.0841  -2.0764  -2.0754  -2.0674  -2.0668  -2.0559  -2.0524  -2.0519
    -2.0449  -2.0430  -2.0369  -2.0295  -2.0258  -2.0233  -2.0178  -2.0139
    -2.0096  -2.0084  -2.0049  -2.0005  -1.9984  -1.9918  -1.9916  -1.9867
    -1.9861  -1.9751  -1.9731  -1.9652  -1.9626  -1.9536  -1.9532  -1.9517
    -1.9478  -1.9434  -1.9417  -1.9376  -1.9248  -1.9191  -1.9120  -1.9087
    -1.9059  -1.9009  -1.8970  -1.8970  -1.8864  -1.8827  -1.8822  -1.8762
    -1.8681  -1.8630  -1.8570  -1.8489  -1.8465  -1.8435  -1.8369  -1.8335
    -1.8298  -1.8295  -1.8205  -1.8134  -1.7964  -1.7962  -1.7915  -1.7779
    -1.7762  -1.7685  -1.7648  -1.7588  -1.7540  -1.7537  -1.7434  -1.7382
    -1.7369  -1.7308  -1.7271  -1.7223  -1.7189  -1.7155  -1.7124  -1.7075
    -1.7030  -1.6961  -1.6868  -1.6788  -1.6760  -1.6709  -1.6673  -1.6602
    -1.6490  -1.6459  -1.6413  -1.6344  -1.6311  -1.6143  -1.6102  -1.6083
    -1.6075  -1.5949  -1.5810  -1.5772  -1.5634  -1.5596  -1.5511  -1.5477
    -1.5457  -1.5374  -1.5357  -1.5266  -1.5252  -1.5232  -1.5159  -1.5127
    -1.5084  -1.5048  -1.4940  -1.4901  -1.4868  -1.4792  -1.4764  -1.4682
    -1.4640  -1.4627  -1.4599  -1.4536  -1.4416  -1.4367  -1.4354  -1.4342
    -1.4339  -1.4291  -1.4270  -1.4231  -1.4175  -1.4152  -1.4093  -1.4045
    -1.4034  -1.4016  -1.3915  -1.3907  -1.3797  -1.3758  -1.3698  -1.3679
    -1.3615  -1.3584  -1.3525  -1.3493  -1.3382  -1.3372  -1.3308  -1.3229
    -1.3200  -1.3135  -1.3095  -1.3032  -1.2979  -1.2755  -1.2736  -1.2724
    -1.2599  -1.2582  -1.2476  -1.2409  -1.2386  -1.2265  -1.2242  -1.2069
    -1.2043  -1.2005  -1.1972  -1.1914  -1.1864  -1.1852  -1.1721  -1.1671
    -1.1667  -1.1628  -1.1615  -1.1570  -1.1543  -1.1507  -1.1389  -1.1285
    -1.1267  -1.1192  -1.1137  -1.1083  -1.1078  -1.1030  -1.0988  -1.0877
    -1.0873  -1.0819  -1.0771  -1.0715  -1.0692  -1.0688  -1.0593  -1.0568
    -1.0546  -1.0476  -1.0454  -1.0376  -1.0345  -1.0295  -1.0256  -1.0184
    -1.0173  -1.0167  -1.0134  -1.0068  -0.9988  -0.9962  -0.9962  -0.9933
    -0.9888  -0.9818  -0.9798  -0.9727  -0.9701  -0.9638  -0.9623  -0.9619
    -0.9611  -0.9532  -0.9506  -0.9501  -0.9469  -0.9429  -0.9376  -0.9364
    -0.9321  -0.9295  -0.9284  -0.9276  -0.9232  -0.9160  -0.9127  -0.9037
[...]
    22.4046  22.4203  22.4252  22.4462  22.4687  22.4765  22.4894  22.5185
    22.5266  22.5307  22.5803  22.5805  22.5974  22.6087  22.6094  22.6309
    22.6414  22.6561  22.6685  22.6710  22.6970  22.7301  22.7335  22.7411
    22.7502  22.7667  22.7820  22.7855  22.7911  22.7934  22.8103  22.8200
    22.8228  22.8304  22.8339  22.8445  22.8565  22.8653  22.8692  22.8735
    22.8762  22.8998  22.9028  22.9049  22.9151  22.9488  22.9611  22.9663
    22.9783  22.9865  22.9881  22.9925  23.2447  23.3276  23.3374  23.3619
    23.4241  23.4557  23.4604  23.5079  23.5250  23.5523  23.5658  23.5818
    23.5858  23.6167  23.6479  23.6583  23.7283  23.7286  23.7640  23.7922
    23.8096  23.8151  23.8398  23.8654  23.8880  23.8969  23.9278  24.0993
    24.1456  24.1588  24.2223  24.2283  24.2716  24.3877  24.4201  24.5035
    24.6050  24.6236  24.6341  24.7638  24.8020  24.8248  24.8275  24.8290
    24.8618  24.9873  25.0273  25.0421  25.0635  25.1021  25.1163  25.1172
    25.1444  25.1615  25.1947  25.2367  25.2746  25.2873  25.3288  25.3424
    25.3642  25.3729  25.3791  25.4225  25.4485  25.4657  25.4834  25.4836

     highest occupied, lowest unoccupied level (ev):     6.1240    9.6824

!    total energy              =  -15480.90797587 Ry
     Harris-Foulkes estimate   =  -15480.90797603 Ry
     estimated scf accuracy    <       0.00000025 Ry

     The total energy is the sum of the following terms:

     one-electron contribution =   -7845.17708833 Ry
     hartree contribution      =    5775.28739940 Ry
     xc contribution           =   -2530.68174406 Ry
     ewald contribution        =  -10886.66711929 Ry
     Hubbard energy            =       6.33057641 Ry

     convergence has been achieved in   9 iterations

     Writing output data file espresso.save

     General routines

     Parallel routines

     Hubbard U routines

   This run was terminated on:   6:52:25  12Jan2023

   JOB DONE.